irreplaceable 3
599 4
attache 5
henry 6
gounon 7
gustafsson 8
abducted 9
rises 10
hampshire 11
tribunal 12
neumann 13
gathered 14
aalst 15
underground 16
wimbledon 17
budgeted 18
canal 19
november 20
caught 21
stress 22
methods 23
112 24
obsessed 25
uae 26
mae 27
premature 28
package 29
raith 30
catholics 31
[ 32
farce 33
a.g. 34
communist 35
90th 36
pot 37
replacement 38
a 39
advice 40
searched 41
fatima 42
stories 43
coal 44
sui 45
particular 46
regarded 48
selection 47
.543 49
slovan 50
212-859-1650 51
exile 52
fishing 53
amr 54
answers 55
balanced 56
ecuador 57
interviews 58
117 59
purchases 60
commodities 61
rob 62
killers 63
unload 64
judges 65
developers 66
unions 67
consulted 68
carbonell 69
oslo 70
wah 71
1997 72
karol 73
colombia 74
official 75
main 76
every 77
agency 78
earn 79
celsius 80
fearing 81
sexual 82
olympics 83
1,500 84
smicer 85
ratings 86
lesser 87
team 88
attacks 89
martin 90
dominic 91
megawati 92
three-party 93
b-4 94
mypa-47 95
agriculture 96
allied 97
glyn 98
tourists 99
term 100
collateral 101
reveal 102
sclerosis 103
.547 104
progressing 105
robson 106
suit 107
seemed 108
fees 109
options 110
apertura 111
cars 112
investigating 113
linda 114
subpoena 115
oliver 116
fourth-seeded 117
subpoenaed 118
st 119
nuns 120
lebed 121
silpa-archa 122
nairobi 123
marseille 124
maximum 125
hijackings 126
rudar 127
friends 128
aces 129
yields 130
badminton 131
upgraded 132
scarborough 133
2778 134
08/26/96 135
bank 136
karlsruhe 137
playoff 138
hectares 139
38:33.595 140
raised 141
impact 142
f1 143
forces 144
agreement 145
dahl 146
rural 147
concerning 148
strokes 149
garden 150
commerce 151
corporation 152
ekimov 153
currency 154
controversy 155
dozen 156
annual 157
extras 158
667 159
complete 160
randriantefy 161
into 162
dwt 163
curb 164
bogra 165
empty 166
todd 167
force 168
boss 169
predrosa 170
cutting 171
visits 172
contention 173
requirements 174
florence 175
perelstein 176
mph 177
shed 178
43 179
jumps 180
spying 181
richey 182
willem 183
negotiate 184
sydney 185
restore 186
heinrich 187
krzysztof 188
bruguera 189
faults 190
resolution 191
stage 192
governments 193
near 194
short 195
spokesmen 196
demirel 197
got 198
investors 199
decibels 200
uag 201
bourlet 202
ahmad 203
thrusting 204
neths 205
detail 206
better 207
surface 208
reach 209
havel 210
puerto 211
belted 212
sudan 213
nuremberg 214
resume 215
scottish 216
complaints 217
ocean 218
jorge 219
call 220
charles 221
carretero 222
marcelo 223
ronnie 224
1996-08-27 225
london 226
claus 227
granted 228
medallist 229
785.00 230
volatility 231
spy 232
+91-22-265 233
federico 234
stephen 235
sanctions 236
greenock 237
stretch 238
extrusion 239
assessment 240
surge 241
kansas 242
cosenza 243
described 244
32 245
southend 246
pool 247
hueite 248
foe 249
wroclaw 250
dirk 251
indicating 252
whistle-stop 253
10/01 254
salvador 255
middle-aged 256
dystrophy 257
comment 258
malbak 259
yastrezhembsky 260
attendance 261
1965 262
7717 263
nelson 264
1982 265
vw 266
theme 267
rand 268
become 269
eli 270
column 271
daughters 272
283 273
posting 274
overs-a-side 275
photographed 276
laws 277
implats 278
382 279
servicemen 280
gaston 281
currin 282
gremio 283
109.4 284
timing 285
disappointing 286
sot 287
regulation 288
protested 289
zwingmann 290
scorers 291
ato 292
bar 293
0.04 294
wouden 295
slavia 296
supreme 297
claverie 299
ranged 298
leftist 300
1909 301
treatment 302
skull 303
youth 304
bachirou 305
innings 306
abortion 307
8,000 308
pts 309
sweep 310
pa 311
rice 312
identified 313
fully 314
tunnel 315
1983 316
olivier 317
itself 318
welspun 319
homered 320
12.10 321
big 322
85th 323
expires 324
experts 325
secrets 326
summary 327
newspaper 328
weekly 329
robbers 330
tell 331
wall 332
mather 333
sells 334
gulbuddin 335
steal 336
welcoming 337
gastel 338
experience 339
kurd 340
paramaribo 341
bnp 342
haringa 343
heavily 344
weighted 345
survived 346
mayock 347
vaughan 348
buyback 349
setubal 350
track 351
meant 352
nestor 353
sultan 354
7.0 355
splinter 356
opponents 357
gibbs 358
onto 359
henman 360
outfielder 361
7.40 362
turner 363
680 364
stand 365
jans 366
excellent 367
6mth 368
mortgage 369
homer 370
visitors 371
floating 372
arms 373
administered 374
escape 375
tampering 376
michel 377
aguirre 378
station 379
margin 380
solo 381
shipments 382
crowded 383
programme 384
dutra 385
ulsan 386
255-3 387
opium 388
10.00 389
gasoline 390
conservation 391
18,000 392
leaders 393
rival 394
drummond 395
wim 396
bridge 397
sampras 398
80 399
vienna 400
shanghai-ek 401
arriving 402
resort 403
testify 404
dragomir 405
gore 406
jornal 407
mr 408
glickman 409
dennis 410
slumber 411
frequent 412
corporate 413
pulled 414
conc 415
posted 416
guillaume 417
brooke 418
poisoning 419
impreza 420
kazakhstan 421
extraction 422
took 423
nwe 424
marion 425
chelny 426
partnership 427
hero 428
tournament 429
olhovskiy 430
111 431
bp 432
budget 433
air 434
prospects 435
unq 436
10 437
injunction 438
signature 439
weakens 440
showers 441
inhuman 442
applications 443
cited 444
schett 445
mutton 446
vermont 447
equaliser 448
capital 449
vac 450
15-30 451
pitted 452
cooperative 453
0.55 454
anderton 455
own 456
investor 457
phil 458
extortion 459
two-thirds 460
weekend 461
routine 462
oremans 463
viruses 464
mutilated 465
goods 466
entertainment 467
truiden 468
economics 469
second-half 470
rican 471
236 472
chaos 473
wrangle 474
argue 475
share 476
ues 477
companion 478
migrants 479
store 480
orders 481
cbot 482
cvg 483
battered 484
damp 485
therapy 486
back-to-back 487
natasha 488
aegon 489
jahan 490
ranks 491
survivors 492
texas 493
arkansas 494
pukstys 495
when 496
decrease 497
mauritius 498
curuchet 499
26-year-old 500
60 501
jensen 502
rosset 503
47,600 504
ross 505
miles 506
discussions 507
cargo 508
praecip 509
few 510
chua 511
mainly 512
153 513
ceske 514
numerous 515
vivit 516
venantius 517
coach 518
contents 519
congressman 520
ncb 521
voluntarily 522
band 523
waterworks 524
zinzan 525
jammu 526
directors 527
partly 528
scarce 529
voted 531
hermawan 530
implementation 532
discharge 533
returned 534
sports 535
20 536
games 537
various 538
contracted 539
petrovic 540
necessary 541
10.84 542
healed 543
england 544
khmer 545
ijaz 546
yone 547
zylstra 548
onyali 549
+331 550
jayasuriya 551
ltte 552
hovercrafts 553
rita 554
estonia 555
penalty 556
golden 557
thorpe 558
novak 559
resolved 560
bike 561
campaign 562
meeting 563
bayern 564
zanoli 565
goran 566
customers 567
1873 568
mohammad 569
sabatini 570
lyon 571
struck 572
b 573
edwin 574
professional 575
susanto 576
hat-trick 577
brain-wasting 578
brian 579
cairo 580
villagers 581
10-2 582
arising 583
motor 584
269 585
massacre 586
u.k. 587
ai 588
aviv 589
provinces 590
our 591
surprised 592
jul 593
heroin 594
far 595
344 596
archer 597
phillies 598
filmed 599
seller 600
reading 601
serving 602
hit-squad 603
fastest 604
gainers 605
holidays 606
julian 607
4x100 608
jv 609
brazil 610
circulation 611
audience 612
mika 613
drinking 614
alloa 615
jan-may 616
% 617
sabourin 618
score 619
reply 620
hosni 621
price 622
5040 623
sheet 624
research 625
cowan 626
direct 627
15-12 628
bulldogs 629
6.05 630
vault 631
2-1/2 632
guadalajara 633
krpaco 634
gateway 635
slid 636
andre 637
patrol 638
kombouare 639
jonzon 640
74-0 641
counterparts 642
favourites 643
108.40 644
0.19 645
founded 646
maskhadov 647
days 648
berri 649
3000 650
birch 651
abated 652
russians 653
communications 654
high-profile 655
vaduz 656
positive 657
n. 658
3-334 659
taipei 660
asks 661
: 662
vmig 663
earnings 664
costas 665
56th 666
bottom 667
124 668
edgar 669
increasingly 670
werner 671
westlake 672
tamper 673
furlan 674
pro-league 675
humans 676
fixtures 677
petr 678
auckland 679
preston 680
accord 681
adelaide 682
routing 683
gives 684
5.0 685
witnesses 686
queens 687
1935 688
owen-jones 689
scores 690
297 691
virtually 692
tallinn 693
obligation 694
parliamentary 695
us 696
dopfer 697
investigators 698
rains 699
all-time 700
473-6 701
claimed 702
locked 703
accords 704
aluminium 705
1966 706
cannons 707
welded 708
lupu 709
mistakes 710
message 711
khadga 712
so 713
richardt 714
532-8 715
investment 716
sary 717
airways 718
lp 719
israel-plo 720
charges 721
justin 722
ryszard 723
3 724
19. 725
kimiko 726
against 727
1996/97 728
langer 729
c$ 730
orioles 731
sda 732
dissolution 733
lasagna 734
tutsi-dominated 735
angolan 736
hailed 737
motorcycle 738
idea 739
invaded 740
hospitalised 741
ginn 742
ata-ur-rehman 743
ryutaro 744
57 745
gallen 746
97.5 747
upside 748
stated 749
committees 750
ac 751
targeted 752
473-4746 753
pegged 754
demanded 755
lei 756
treat 757
incomprehensible 758
alec 759
rodney 760
kytolehto 761
installed 762
dense 763
visiting 764
hasan 765
pedestrian 766
appeared 767
van 768
08/29/1996 769
106 770
larsson 771
ioc 772
barrel 773
strongest 774
internationals 775
gluten 776
generals 777
gradual 778
doors 779
floors 780
448 781
nitra 782
clinical 783
play 784
widness 785
sturm 786
tissue 787
266 788
muni 789
violence 790
martinez 791
contingency 792
jointly 793
000s 794
translator 795
suicide 796
service 797
34th 798
o'clock 799
image 800
hanson 801
aaron 802
reformist 803
ambushed 804
active 805
tobago 806
germans 807
israeli-plo 808
restaurant 809
benetton 810
pushpakumara 811
soren 812
alain 813
shimaponda 814
liberation 815
ciller 816
andy 817
americans 818
tablets 819
officially 820
haga 821
athens 822
ann 823
script 824
radio 825
heart 826
monrovia 827
+7 828
quotes 829
21st 830
h. 831
environmental 832
220 833
inch 834
ceahlaul 835
missionary 836
downstairs 837
itamar 838
accept 839
process 840
appearance 841
47.4 842
matahari 843
soir 844
trailed 845
an 846
subsidies 847
cottey 848
3-6 849
gcaleka 850
nov 851
boland 852
area 853
killings 854
16-1 855
sjeng 856
faith 857
kaspars 858
hoek 859
offered 860
tina 861
c 862
pages 863
anyone 864
murdered 865
kremlin 866
with 867
four-year 868
collected 869
journal 870
matter 871
apt 872
cells 873
peat 874
accomplice 875
looked 876
strength 877
hogg 878
babies 879
meningitis 880
luciano 881
cyprus 882
violating 883
death 884
cercle 885
crashing 886
.01 887
6.0 888
comparison 889
santos 890
berlin 891
easing 892
hradec 893
current 894
sheep 895
4.9 896
online 897
o 898
9,000 899
carlos 900
detailed 901
push 902
marched 903
christie 904
accumulated 905
sentence 906
miladin 907
q2 908
for 909
9/16 910
inform 911
passengers 912
quarter-final 913
38:34.999 914
231 915
massacres 916
stg 917
groningen 918
ponders 919
1993 920
ranatunga 921
healthy 922
drew 923
useful 924
karak 925
tanya 926
rolf 927
46 928
8. 929
834405 930
consolation 931
northwest 932
guilders 933
plg 934
inter 935
more 936
shareholders 937
10.09 938
liam 939
sexually 940
grandson 941
independence 942
hubner 943
erbakan 944
botta 945
joining 946
burillo 947
offset 948
pines 949
grimsby 950
weak 951
gephardt 952
stole 953
kuperman 954
6-5 955
changed 956
coups 957
referendum 958
cavorting 959
suspicion 960
riding 961
freund 962
cologne 963
divided 964
know 965
hissou 966
krajina 967
bishop 968
oncins 969
52 970
ebe 971
12,900-13,100 972
becoming 973
m3 974
worker 975
speaks 976
presently 977
handle 978
ate 979
.536 980
laps 981
noise 982
travelling 983
42-2-2423-0003 984
document 985
fluids 986
outgoing 987
1100 988
343-8 989
alloy 990
adam 991
performances 992
90m 993
f40 994
arrange 995
1979 996
poking 997
hicham 998
leading 999
artillery 1000
trading 1001
hostilities 1002
forest 1003
shipping 1004
block 1005
16 1006
mafia 1007
individual 1008
205-9 1009
disguised 1010
sit 1011
mitsubishi 1012
brain 1013
media 1014
speaker 1015
pesos 1016
goias 1017
mount 1018
smets 1019
zambia 1020
dignity 1021
fighters 1022
collections 1023
passer-by 1024
fled 1025
overcome 1026
visas 1027
level 1028
pleased 1029
paper 1030
palmeiro 1031
3-7 1032
engage 1033
landless 1034
confusing 1035
fundamentals 1036
always 1037
focusing 1038
unprecedented 1039
35 1040
asif 1041
jobs 1042
turned 1043
interacciones 1044
top 1045
cast 1046
hurricane 1047
inverness 1048
industries 1049
mds 1050
commission 1051
4.0 1052
bristol 1053
digging 1054
lufthansa 1055
cebit 1056
substituted 1057
wider 1058
bordering 1059
employee 1060
15-14 1061
dns 1062
120 1063
indifference 1064
u.s. 1065
cannabis 1066
magistrates 1067
ratio 1068
sciandri 1069
guantanamo 1070
dubai 1071
first-team 1072
1-2 1073
broadcasting 1074
sumitomo 1075
lanner 1076
similar 1077
lockhart 1078
.10 1079
rates 1080
helped 1081
gencor 1082
ayr 1083
min 1084
venue 1085
perry 1086
tirgoviste 1087
probing 1088
anti-drug 1089
florencia 1090
balances 1091
racing 1092
hershiser 1093
newspapers 1094
2,337 1095
smyth 1096
15-11 1097
firms 1098
day 1099
commentary 1100
portfolio 1101
mcewen 1102
fda 1103
representative 1104
1994/95 1105
sunderland 1106
affidavit 1107
baltimore 1108
tolerance 1109
accomplished 1110
cea 1111
dekker 1112
abusing 1113
arnold 1114
lane 1115
syrians 1116
kingston 1117
lowered 1118
finnish 1119
barrick 1120
hundred 1121
.. 1122
11-7 1123
highlight 1124
kenny 1125
ticket 1126
rennes 1127
steel 1128
rallying 1129
gianni 1130
mushota 1131
civilian 1132
one-time 1133
wagner 1134
luis 1135
held 1136
latter 1137
directed 1138
however 1139
medal 1140
tirade 1141
belometti 1142
chesterfield 1143
buhner 1144
capacity 1145
38:35.297 1146
changes 1147
times 1148
pursue 1149
fall 1150
girlfriend 1151
wishart 1152
pusan 1153
gornik 1154
developed 1155
causing 1156
kennedy 1157
.519 1158
gilford 1159
mind 1160
ferdinand 1161
meal 1162
athletes 1163
sake 1164
garrity 1165
16.13 1166
predictions 1167
united 1168
' 1169
sarah 1170
13.353 1171
freedom 1172
pornographic 1173
caen 1174
refinery 1175
anti-abortion 1176
corey 1177
moenchengladbach 1178
jewel 1179
manly 1180
oval 1181
hits 1182
nervous 1183
question 1184
4,200 1185
my 1186
dechy 1187
unwanted 1188
zabel 1189
visible 1190
simex 1191
le 1192
irna 1193
zurich 1194
1687 1195
ability 1196
livingston 1197
3.2 1198
pemberton 1199
initially 1200
promised 1201
commitment 1202
player 1203
mccarthy 1204
34.0 1206
importers 1205
apache 1207
contrary 1208
forecasts 1209
buy 1210
damaging 1211
30-year 1212
limerick 1213
felt 1214
empire 1215
+17 1216
hurdles 1217
.474 1218
wages 1219
succeeded 1220
71st 1221
you 1222
fax 1223
winner 1224
fours 1225
child 1226
judge 1227
shopkeepers 1228
sufficiently 1229
2-239 1230
555 1231
padres 1232
probably 1233
legislators 1234
poznan 1235
schneider 1236
okuda 1237
county 1238
haitai 1239
sosa 1240
2. 1241
ancestors 1242
carefully 1245
unofficial 1243
go 1244
matches 1246
henri 1247
an-nahar 1248
posts 1249
gumy 1250
109 1251
traditionally 1252
reds 1253
fire 1254
humberto 1255
jewish 1256
screen 1257
bordeaux 1258
separate 1259
mosque 1260
nato-led 1261
latvia 1262
amrollah 1263
basuki 1264
declare 1265
bruises 1266
irish 1267
differences 1268
eating 1269
marred 1270
spanish 1271
5000 1272
toronto 1273
az 1274
approached 1275
perth 1276
reuters 1277
no1 1278
2410 1279
funar 1280
procedures 1281
denounced 1282
fairbrother 1283
recommendation 1284
war 1285
vogts 1286
fresh 1287
jos 1288
bounce 1289
dahman 1290
scoreline 1291
romp 1292
q3 1293
betar 1294
todt 1295
history 1296
liner 1297
blakey 1298
18.0 1299
mw 1300
hever 1301
shirt 1302
cell 1303
281 1304
unchanged 1305
doubts 1306
collinelli 1307
sochi 1308
misfortune 1309
tulio 1310
gama 1311
uganda 1312
dukla 1313
loznica 1314
kapoor 1315
ob 1316
229-1 1317
continue 1318
seize 1319
distillers 1320
understanding 1321
metal 1322
tidy 1323
trailing 1324
riots 1325
obtained 1326
damm 1327
5.75 1328
four-nation 1329
part 1330
trinidad 1331
alex 1332
piatra 1333
glenwood 1334
kms 1335
reppas 1336
whoever 1337
prevented 1338
mohamed 1339
24 1340
160 1341
communities 1342
inside 1343
brisbane 1344
eco-challenge 1345
fugitive 1346
legal 1347
paid 1348
prepares 1349
0.25 1350
rebel-held 1351
outspoken 1352
purchase 1353
1990 1354
reserves 1355
or 1356
illawarra 1357
three-hour 1358
named 1359
collin 1360
center 1361
schalken 1362
slovak 1363
plainclothes 1364
walls 1365
lausanne 1366
stabilise 1367
delaying 1368
southeast 1369
5-68 1370
shr 1371
3.73 1372
vicente 1373
replaces 1374
hutnik 1375
khartoum 1376
werder 1377
placings 1378
sewa 1379
sitting 1380
ridden 1381
improved 1382
alesi 1383
1996-08-24 1384
thiel 1385
richards 1386
4.50 1387
accounting 1388
venezuela 1389
jockey 1390
concrete 1391
satisfying 1392
57.50 1393
header 1394
sturrup 1395
alerted 1396
hutton 1397
almere 1398
different 1399
planes 1400
fundamental 1401
rules 1402
involving 1403
l. 1404
bronze 1405
nomination 1406
marial 1407
cooperate 1408
alomar 1409
suspension 1410
tacis 1411
asanka 1412
heat 1413
trust 1414
alleging 1415
highlights 1416
replace 1417
hutu 1418
portuguese 1419
pledged 1420
prohibited 1421
baudone 1422
harvey 1423
hitler 1424
series 1425
sheikh 1426
ultimatum 1427
hincapie 1428
mapourdit 1429
headed 1430
wing 1431
just 1432
penh 1433
mccurry 1434
pivotal 1435
karl 1436
6. 1437
cull 1438
dirty 1439
germany 1440
dumbarton 1441
exeter 1442
provides 1443
offence 1444
hryvna 1445
ambulance 1446
41.5 1447
attackers 1448
involved 1449
mujahideen 1450
shares 1451
magnus 1452
schutte 1453
voinea 1454
3.7 1455
speed 1456
cis 1457
january-june 1458
seventh 1459
ducati 1460
quigley 1462
academics 1461
copies 1463
gothenburg 1464
arrivals 1465
ginebra 1466
clashes 1467
casino 1468
metz 1469
terrorism 1470
her 1471
consolidated 1472
administrator 1473
spotted 1474
ruutel 1475
algerian 1476
ministry 1477
dal 1478
fed 1479
pessina 1480
expand 1482
provisional 1481
asia 1483
gmbh 1484
hk 1485
consensus 1486
double 1487
southwest 1488
guilder 1489
bergen 1490
dortmund 1491
boje 1492
wengert 1493
olaf 1494
joked 1495
belongs 1496
gregory 1497
24th 1498
10-7 1499
critics 1500
acceptance 1501
explaining 1502
furyk 1503
75th 1504
dkba 1505
374 1506
revenue 1507
reiterates 1508
colonna 1509
shows 1510
leadership 1511
73 1512
902 1513
rakow 1514
advising 1515
suspects 1516
koninklijke 1517
concept 1518
chor 1519
factory 1520
arbroath 1521
storm 1522
microsystems 1523
busy 1524
383 1525
moral 1526
asuu 1527
breda 1528
higashi 1529
freeman 1530
class 1531
muster 1532
malaria 1533
introduction 1534
balls 1535
arc 1536
toward 1537
diario 1538
0330 1539
lapentti 1540
likened 1541
4-54 1542
internet 1543
collar 1544
shift 1545
thing 1546
bourses 1547
6- 1548
kenneth 1549
machado 1550
pre-season 1551
choudhury 1552
pdi 1553
vowed 1554
192 1555
goalkeeper 1556
plant 1557
came 1558
forever 1559
skhirat 1560
dismal 1561
terry 1562
noel 1563
collaborators 1564
hick 1565
karbacher 1566
platform 1567
noisy 1568
convicted 1569
45 1570
bamerindus 1571
43.50 1572
stadium 1573
oh 1574
taking 1575
concerns 1576
summaries 1577
intends 1578
somerset 1579
worth 1580
strike 1581
catcher 1582
50 1583
returns 1584
shared 1585
necmettin 1586
primary 1587
tbn 1588
getting 1589
tv 1590
securities 1591
libya 1592
vitesse 1593
forensic 1594
montpelier 1595
consulate 1596
43-year-old 1597
freed 1598
marketplace 1599
beirut 1600
hot 1601
arrive 1602
third 1603
issues 1604
pictures 1605
28.9 1606
fremantle 1607
tagged 1608
steered 1609
asset 1610
decisions 1611
icac 1612
goodwill 1613
debut 1614
shocked 1615
throughout 1617
heard 1616
planting 1618
zabrze 1619
next 1620
scared 1621
injury 1622
keane 1623
hyundai 1624
naish 1625
srebrenica 1626
repsol 1627
automatic 1628
operating 1629
delay 1630
lathwell 1631
three 1632
1995/96 1633
141 1634
shoot 1635
cox 1636
marina 1637
avonex 1638
218 1639
routed 1640
swiss 1641
vitoux 1643
interviewed 1642
pfd-1 1644
escravos 1645
batter 1646
right-wing 1647
ljubljana 1648
apart 1649
intercepted 1650
bolton 1651
thrust 1652
griqualand 1653
liverpool 1654
moyer 1655
soldier 1656
lowers 1657
overturned 1658
wearing 1659
measure 1660
212 1661
touch 1662
surinam 1663
widzew 1664
students 1665
1977 1666
18 1667
judiciary 1668
partizan 1669
pull 1670
prominent 1671
arabia 1672
74 1673
lbs 1674
10,000 1675
york 1676
moore 1677
simmons 1678
togo 1679
rescued 1680
reportedly 1681
proposing 1682
demonstrated 1683
7,011 1684
sees 1685
iron 1686
opener 1687
rodham 1688
proposes 1689
hussain 1690
iscor 1691
novye 1692
cuban 1693
comprehensive 1694
since 1695
violent 1696
privately 1697
moussa 1698
reigning 1699
hodgson 1700
6-8 1701
baker 1702
src 1703
arsenal 1704
socialist 1705
stoke 1706
centres 1707
duisburg 1708
tonne 1709
denied 1710
mickelson 1711
boards 1712
16-year-old 1713
amount 1714
names 1715
accuses 1716
doug 1717
73rd 1718
138 1719
slumped 1720
aoki 1721
multi-party 1722
needs 1723
mcgriff 1724
101-member 1725
modem 1726
major-league 1727
callers 1728
valentin 1729
core 1730
picked 1731
award 1732
sixth-seeded 1733
piazza 1734
59 1735
15-5 1736
kambli 1737
sterling 1738
bulgarian 1739
volume 1740
crushing 1741
typically 1742
sciences 1743
sparta 1744
low 1745
underwent 1746
746 1747
catalan 1748
bucharest 1749
sleep 1750
falling 1751
refunds 1752
organisers 1753
bowling 1754
reorganization 1755
resulting 1756
1nb 1757
antioquia 1758
aleksandra 1759
existing 1760
colorado 1761
along 1762
acres 1763
** 1764
silver 1765
have 1766
15. 1767
julie 1768
foul 1769
factions 1770
execution 1771
sidelined 1772
trial 1773
accomplices 1774
korneev 1775
83rd 1776
6-273 1777
collision 1778
murdering 1779
becanovic 1780
431 1781
rebound 1782
renewed 1783
60.66 1784
bondholders 1785
corsica 1786
13-month-old 1787
masterkova 1788
ravindra 1789
alter 1790
polish 1791
million 1792
materialise 1793
quoting 1794
sector 1795
warner 1796
inspections 1797
frank 1798
liquidated 1799
monarch 1800
markgraaff 1801
veldman 1802
50th 1803
surgeon 1804
jump 1805
intervene 1806
ahronoth 1807
dravid 1808
cabinet 1809
endurance 1810
yesterday 1811
mile 1812
join 1813
florida 1814
venture 1815
fob 1816
'd 1817
dealing 1818
flamboyant 1819
rochdale 1820
ecus 1821
uruguay 1822
3,684 1823
candidates 1824
forward 1825
omar 1826
bush 1827
source 1828
staging 1829
scotland 1830
gak 1831
1930s 1832
jail 1833
7.3 1834
decide 1835
burden 1836
militant 1837
receive 1838
yr 1839
tuesday 1840
region 1841
overcame 1842
gress 1843
door 1844
devon 1845
casablanca 1846
talk 1847
shops 1848
market 1849
marked 1850
bjorkman 1851
raw 1852
half-time 1853
update 1854
generation 1855
disabled 1856
cocu 1857
formally 1858
yihye 1859
5.50 1860
refer 1861
served 1862
stoppage 1863
mieciel 1864
than 1865
angels 1866
worrying 1867
undisclosed 1868
manama 1869
noce 1870
bragantino 1871
coetzer 1872
dalian 1873
extradite 1874
priest 1875
interests 1876
jonas 1877
showering 1878
federation 1879
artmedia 1880
commentators 1881
om 1882
kerkrade 1883
banned 1884
cjd 1885
tossed 1886
electronic 1887
airliner 1888
ankara 1889
recovered 1890
frankfurt 1891
trip 1892
move 1893
palmer 1894
israeli 1895
9000 1896
consolidation 1897
baldwin 1898
maturity 1899
runs 1900
asian 1901
shen 1902
time 1903
zlotys 1904
wisc 1905
broke 1906
brains 1907
anders 1908
1995 1909
scoreless 1910
fischler 1911
pro-soccer 1912
network 1913
springer 1914
tonight 1915
quarter-finals 1916
civilians 1917
payment 1918
blown 1919
dias 1920
surrender 1921
commitments 1922
palace 1923
sowing 1924
reports 1925
80th 1926
pregnant 1927
guinea 1928
85 1929
lisa 1930
unitog 1931
msk 1932
mongia 1933
oasis 1934
ideal 1935
owed 1936
normal 1937
normalisation 1938
enters 1939
break 1940
emergency 1941
h1 1942
chaminda 1943
tennis 1944
0.5 1945
establishing 1946
11.04 1947
ranked 1948
0.69 1949
run 1950
bypass 1951
telecom 1952
everyone 1953
0.47 1954
wild-card 1955
muslim 1956
shot 1957
activists 1958
concluding 1959
hostages 1960
432 1961
1988 1962
edberg 1963
nobel 1964
cecil 1965
fictitious 1966
dream 1967
atherton 1968
weaver 1969
domingo 1970
339-4 1971
refuelled 1972
balloon 1973
widespread 1974
2,583.49 1975
20,000 1976
iva 1977
restrict 1978
publications 1979
prepared 1980
two-week 1981
luck 1982
hide 1983
dirt 1984
third-set 1985
istanbul 1986
strang 1987
nsdap-ao 1988
us$ 1989
communists 1990
clash 1991
resign 1992
ex-president 1993
4-95 1994
stromme 1996
shore 1995
gulf 1997
sudden 1999
ambassador 1998
struggling 2000
enable 2001
10-15 2002
4 2003
cruised 2004
retain 2005
brundle 2006
west 2007
forecast 2008
stromsgodset 2009
completed 2010
wigan 2011
bang 2012
560 2013
soyoil 2014
307 2015
adel 2016
textbooks 2017
journalists 2018
premiership 2019
shots 2020
turn 2021
cardinals 2022
28 2023
threat 2024
sensitive 2025
26. 2026
arrangements 2027
unfair 2028
compete 2029
retire 2031
superb 2030
tutu 2032
lists 2033
25 2034
trio 2035
here 2036
15-3 2037
safety 2038
ferris 2039
one-half 2040
local 2041
7th 2042
separately 2043
heiko 2044
trees 2045
geology 2046
natalia 2047
plastics 2048
+4 2049
64th 2050
11-3 2051
becomes 2052
lommel 2053
fitzroy 2054
laurent 2055
exploded 2056
he 2057
sussex 2058
repairs 2059
harare 2060
lung 2061
solidere 2062
spent 2063
step 2064
o'meara 2065
six-run 2066
crp 2067
negotiator 2068
opposition 2069
claydon 2070
telfer 2071
yuan 2072
122.5 2073
shigeki 2074
15-8 2075
359-2-84561 2076
gloucestershire 2077
gooch 2078
15-7 2079
zinc 2080
observatory 2081
650,000 2082
1.82 2083
response 2084
323 2085
concentrated 2086
rouge 2087
organising 2088
boat 2089
recife 2090
job 2091
storage 2092
replied 2093
burnley 2094
filming 2095
huber 2096
unseeded 2097
disappeared 2098
divisional 2099
carol 2100
roll 2101
olomouc 2102
lauck 2103
attempt 2104
crown 2105
0400 2106
jackpot 2107
karem 2108
does 2109
miguel 2110
aa 2111
gerard 2112
sidhu 2113
swp 2114
nun 2115
marc 2116
metalurg 2117
amusement 2118
jas 2119
practical 2120
chief-of-staff 2121
389 2122
dates 2123
perot 2124
funk 2125
lodz 2126
story 2127
expels 2128
colonel 2130
boby 2129
13.36 2131
book 2132
syrian 2133
units 2134
defending 2135
1950s 2136
nigeria 2137
terror 2138
talks 2139
keenness 2140
governor 2141
riders 2142
nominations 2143
erdmann 2144
nana 2145
9221-5685192 2146
oct 2147
radka 2148
buducnost 2149
park 2150
meets 2151
gone 2152
17. 2153
injection 2154
5 2155
7-6 2156
fort 2157
iraqis 2158
27,000 2159
discussing 2160
balloting 2161
murder 2162
guaranteed 2163
angry 2164
see-saw 2165
middle 2166
unexpected 2167
killing 2168
leone 2169
lee 2170
chapman 2171
departments 2172
tests 2173
tomasson 2174
vfb 2175
16th 2176
notes 2177
require 2178
behalf 2179
heir 2180
worsened 2181
guidance 2182
756525 2183
seat 2184
difference 2185
downer 2186
gupta 2187
championships 2188
tool 2189
pray 2190
maturing 2191
marcos 2192
panel 2193
simitis 2194
topsoil 2195
exclusive 2196
jyvaskyla 2197
including 2198
schools 2199
direction 2200
edouard 2201
window 2202
15-4 2203
usual 2204
osmond 2205
printed 2206
crop 2207
traffic 2208
long-term 2209
forfar 2210
w 2211
fiasco 2212
391 2213
numan 2214
91 2215
mild 2216
82.20 2217
hospital 2218
niugini 2219
stefano 2220
discuss 2221
grain 2222
353 2223
mcallister 2224
boetsch 2225
connected 2226
exceptional 2227
kaba 2228
housecall 2229
senior 2230
try 2231
washed 2232
uml 2233
prague 2234
product 2235
3.1 2236
achievement 2237
language 2238
confrontation 2239
successful 2240
unsettled 2241
arce 2242
failure 2243
dowman 2244
photographs 2245
commanders 2246
adrian 2247
epa 2249
tatyana 2248
jean 2250
prevailed 2251
captain 2252
lens 2253
rahman 2254
depreciation 2255
passage 2256
scoring 2257
healthcare 2258
wolfgang 2259
slumping 2260
nec 2261
valley 2262
faroe 2263
key 2264
reaching 2265
28-36c 2266
older 2267
holds 2268
perrin 2269
ramon 2270
63 2271
session 2272
malcolm 2273
perhaps 2274
celebrate 2275
permits 2276
predecessor 2278
chancellor 2277
hakkinen 2279
afterwards 2280
village 2281
dole 2282
dreyfus 2283
crackdown 2284
moments 2285
dnevi 2286
how 2287
says 2288
batches 2289
.523 2290
thigh 2291
led 2292
serb 2293
37.4 2294
2,901.48 2295
110 2296
2-85 2297
par 2298
.530 2299
undermine 2300
sleeping 2301
office 2302
chanda 2303
compensation 2304
degree 2305
6-1 2306
flown 2307
asking 2308
sunday 2309
apple 2310
supply 2311
commandments 2312
grade 2313
georges 2314
villeneuve 2315
earlier 2316
responding 2317
fix 2318
electoral 2319
noriyuki 2320
affecting 2321
senator 2322
heidrun 2323
ogunkoya 2324
steep 2325
faster 2326
uprising 2327
harleysville 2328
unknown 2329
credit 2330
16. 2331
african 2332
russell 2333
way 2334
2.1 2335
jakob 2336
viacom 2337
adopt 2338
library 2339
voica 2340
looming 2341
placed 2342
medicare 2343
1844 2344
67th 2345
persons 2346
importing 2347
lagging 2348
their 2349
pour 2350
vega 2351
eventually 2352
sirnak 2353
dies 2354
rose 2355
notified 2356
sought 2357
rio 2358
assistant 2359
annex 2360
much 2361
ceasefire 2362
effect 2363
boardman 2364
beautiful 2365
khan 2366
tricks 2367
280 2368
biogen 2369
much-delayed 2370
personal 2371
chonan 2372
cholesterol 2373
working 2374
pec 2375
lanusse 2376
1996-08-22 2377
cents 2378
3-116 2379
filippini 2380
table 2381
glamorgan 2382
gaudenzi 2383
mike 2384
ever 2385
develop 2386
payments 2387
equipment 2388
shipment 2389
tarmac 2390
machine 2391
norton 2393
authority 2392
courts 2394
41 2395
steeb 2396
weld 2397
+3.6 2398
honours 2399
resignation 2400
paying 2401
lampitt 2402
2nb 2403
13.24 2404
signs 2405
4th 2406
gt2 2407
member 2408
benelux 2409
stunning 2410
sold 2411
act 2412
engineer 2413
forms 2414
9-3 2415
weather 2416
mirren 2417
taiwanese 2418
.628 2419
colin 2420
talbott 2421
recommendations 2422
sharply 2423
0-6 2424
loretto 2425
7-3 2426
ninth 2427
f-14 2428
peiris 2429
appreciate 2430
aboard 2431
easy 2432
mclaren 2433
confidence 2434
atp 2435
6000 2436
reneberg 2437
salo 2438
goals 2439
business 2440
unless 2441
institutional 2442
intelligence 2443
seattle 2444
consecutive 2445
arm 2446
understand 2447
6-7 2448
postal 2450
6.5 2449
jens 2451
competing 2452
20-month 2453
20.00 2454
joseph 2455
testosterone 2456
456.8 2457
eales 2458
chonbuk 2459
left 2460
russo 2461
c.c 2462
repeated 2463
tourism 2464
nepal 2465
ternopil 2466
1989 2467
thus 2468
2060 2469
reformed 2470
ptt 2471
.466 2472
jonathon 2473
disputed 2474
billion 2475
delgado 2476
isaac 2477
rapeseed 2478
17,000 2479
collective 2480
withering 2481
nomo 2482
haeggman 2483
+31 2484
addition 2485
james 2486
53 2487
0.1 2488
confirm 2489
actress 2490
congressional 2491
6179 2492
crystal 2493
fbi 2494
jamaica 2495
confident 2496
capturing 2497
transmission 2498
youthful 2499
system 2500
atagi 2501
intravenous 2502
rotor 2503
fly-half 2504
ivanisevic 2505
client 2506
long-on 2507
corrected 2508
rapid 2509
teenagers 2510
tang 2511
body 2512
soccer 2513
international 2514
followed 2515
philip 2516
expressed 2517
un 2518
mariaan 2519
daoud 2520
positions 2521
hired 2522
agius 2523
slam 2524
increases 2525
invalid 2526
ayres 2527
noted 2528
burhanuddin 2529
ryder 2530
goddess 2531
cannot 2532
recent 2533
6.1 2534
henrique 2535
dejesus 2536
60.00 2537
allegedly 2538
bribes 2539
forwards 2540
107.55 2541
bookseller 2542
evert 2543
nil 2544
serve 2545
capped 2546
wronki 2547
levenson 2548
profit 2549
1996-08-25 2550
171.00 2551
tripoli 2552
lightning 2553
heading 2554
mamiit 2555
h.k. 2556
within 2557
nominee 2558
quarters 2559
explicit 2560
goalscorers 2561
moura 2562
abduction 2563
costa 2564
transportation 2565
arnhem 2566
elsewhere 2567
loose 2568
cape 2569
lucky 2570
clocked 2571
gained 2572
abilities 2573
immediate 2574
passport 2575
ocei 2576
contenders 2577
vertebrae 2578
club 2579
recovering 2580
lehman 2581
pork 2582
irregular 2583
anthony 2584
point 2585
thai 2586
housing 2587
ernie 2588
jim 2589
sakai 2590
rallied 2591
tackling 2592
first-class 2593
roughly 2594
ally 2595
barter 2596
state 2597
fair 2598
vanlandingham 2599
increased 2600
samokhalova 2601
norwegian 2602
alaska 2603
defensive 2604
acting 2605
heads 2606
contributing 2607
swedish 2608
birdied 2609
1996-08-23 2610
european 2611
filipovic 2612
american 2613
welfare 2614
dictatorship 2615
1987 2616
consequences 2617
disagreement 2618
target 2619
noticias 2620
districts 2621
kucan 2622
tavarez 2623
srinagar 2624
glenn 2625
representatives 2626
den 2627
measures 2628
pro-baghdad 2629
ordeal 2630
oj 2631
ekeren 2632
duff 2633
13.4 2634
flowing 2635
disappears 2636
trickle 2637
dutroux 2638
pattern 2639
stanley 2640
physicians 2641
sank 2642
gaidano 2643
custody 2644
president 2645
noting 2646
trying 2647
margaret 2648
implement 2649
jimy 2650
permission 2651
we 2652
reduced 2653
tie 2654
ffk 2655
0-0 2656
slough 2657
slovenian 2658
medicaid 2659
conde 2660
islamic 2661
spend 2662
tikva 2663
personnel 2664
phase 2665
cyprien 2666
top-seeded 2667
aviation 2668
rabbani 2669
millwall 2670
pullout 2671
southeastern 2672
archives 2673
jalal 2674
.425 2675
knifed 2676
u.s.-led 2677
elephants 2678
varteks 2679
broken 2680
streak 2681
brings 2682
neuchatel 2683
borrowing 2684
5.60 2685
egypt 2686
2:29.66 2687
ivac 2688
12.0 2689
mideast 2690
maintained 2691
cuthbert 2692
proposed 2693
shareholder 2694
po 2695
eve 2696
strikeouts 2697
squash 2698
ravanelli 2699
lone 2700
hold 2701
adkins 2702
debate 2703
290 2704
bushland 2705
andreas 2706
m. 2707
gearbox 2708
consistently 2709
150 2710
abc 2711
212.25 2712
korda 2713
collated 2714
cm 2715
exported 2716
academic 2717
barton 2718
contesting 2719
fk 2720
5.05 2721
explosion 2722
yet 2723
lefevre 2724
allocated 2725
managua 2726
oriente 2727
french 2728
disorder 2729
adding 2730
programmes 2731
place 2732
warsaw 2733
one-month 2734
bound 2735
expect 2736
selected 2737
434 2738
serb-held 2739
refusing 2740
broadhurst 2741
adviser 2742
surveyed 2743
petrolul 2744
favor 2745
taument 2746
voskamp 2747
newsroom 2748
those 2749
vereinsbank 2750
bombay 2751
copper 2752
859 2753
orient 2754
coers 2755
bertram 2756
houston 2757
announcement 2758
kamoga 2759
italy 2760
parted 2761
farewell 2762
launched 2763
flooded 2764
20-month-old 2765
magazines 2766
arch-rivals 2767
pence 2768
affair 2769
fertile 2770
vancouver 2771
checks 2772
263-7 2773
ears 2774
quiet 2775
regarding 2776
separatists 2777
zaglebie 2778
customer 2779
majoli 2780
barry 2781
slask 2782
lks 2783
surgical 2784
65th 2785
gordon 2786
bodies 2787
hing 2788
gente 2789
2288 2790
provincial 2791
1973 2792
legitimate 2793
slammed 2794
kicked 2795
teams 2796
prevailing 2797
kleiner 2798
hashan 2799
achieved 2800
normally 2801
2001 2802
successor 2803
bekescsaba 2804
fails 2805
1.90 2806
excessive 2807
sep 2809
feels 2808
johnson 2810
12.3 2811
citterio 2812
tense 2813
free 2814
176 2815
december 2816
unhurt 2817
smaller 2818
hollywood 2819
13th 2820
luxury 2821
czestochowa 2822
courier 2823
accordance 2824
haj 2825
lorenzo 2826
chronic 2827
oil-for-food 2828
declared 2829
strategy 2830
happened 2831
kors 2832
o'neal 2833
rate 2834
barrels 2835
drobnjak 2836
handing 2837
yelena 2838
escorted 2839
deal 2840
britain 2841
skilled 2842
indication 2843
.526 2844
63rd 2845
scifo 2846
appreciation 2847
lejeune 2848
associated 2849
challenging 2850
ealham 2851
name 2852
timetable 2853
norms 2854
reporters 2855
attorney 2856
uncapped 2857
reluctant 2858
osborne 2859
ruled 2860
beef 2861
125 2862
szymanski 2863
appears 2864
disperse 2865
pipes 2866
glass 2867
maccabi 2868
97 2869
guernsey 2870
12-1-41-1 2871
ulihrach 2872
already 2873
centers 2874
cause 2875
problems 2876
acceptable 2877
bartoli 2878
debbie 2879
disputes 2880
ultimate 2881
dating 2882
116 2883
carlton 2884
resources 2885
ceremony 2886
like 2887
workforce 2888
seven 2889
ipe 2890
breeders 2891
bogota 2892
operators 2893
millfeed 2894
cruz 2895
orvieto 2896
voting 2897
moss 2898
hungary 2899
chad 2900
singapore 2901
jennifer 2902
50,000 2903
argument 2904
heavy 2905
change 2906
sequel 2907
galo 2908
open 2909
upgrade 2910
79 2911
everybody 2912
startup 2913
clayton 2914
edged 2915
.471 2916
colonies 2917
lounge 2918
tbf 2919
1947 2920
pga 2921
8,800 2922
petroleums 2923
demonstrators 2924
stich 2925
five-year 2926
captured 2927
number 2928
revellers 2929
energy 2930
thomson 2931
hungarian 2932
4-2 2933
organist 2934
celtic 2935
canteen 2936
boris 2937
thailand 2938
impala 2939
reduction 2940
surrendered 2941
animals 2942
reshuffle 2943
intestines 2944
doing 2945
technology 2946
accompanied 2947
effective 2948
law 2949
+7095 2950
amt 2951
samper 2952
equities 2953
cease 2954
dialogue 2955
sarajevo 2956
wessels 2957
cejka 2958
rise 2959
wyborcza 2960
wants 2961
takeda 2962
girls 2963
subscribers 2964
rent 2965
print 2966
delegates 2967
pairs 2968
arrives 2969
among 2970
bukovec 2971
bonnet 2972
premiums 2973
crucial 2974
heeswijk 2975
william 2976
comes 2977
faction 2978
0 2979
advertising 2980
aa+ 2981
freetown 2982
intensive 2983
diesel 2984
lomas 2985
patrick 2986
safe 2987
gunman 2988
emerged 2989
tomato 2990
knowles 2991
based 2992
6-11 2993
med 2994
imran 2995
insurgency 2996
path 2997
altered 2998
lumber 2999
feb 3000
engineers 3001
suedwest 3002
stay 3003
beatrix 3004
2.7975 3005
2.75 3006
weston 3007
rovereto 3008
eighth 3009
sister 3010
accused 3011
atria 3012
seriously 3013
massing 3014
kent 3015
12-8 3016
fifth-seeded 3017
mehrtens 3018
popov 3019
board 3020
48th 3021
wage 3022
publishing 3023
74th 3024
remains 3025
medical 3026
ricardo 3027
medellin 3028
2-0 3029
thon 3030
intention 3031
walsall 3032
need 3033
affects 3034
hardliners 3035
as 3036
gripping 3037
using 3038
ray 3039
evening 3040
yemen 3041
entertaining 3042
1/2 3043
bowled 3044
declines 3045
immigrant 3046
estimated 3047
37 3048
testing 3049
coordination 3050
expresses 3051
fraser 3052
wave 3053
abuja 3054
ground 3055
secretary 3056
privatization 3057
base 3058
alan 3059
fujiwara 3060
horst 3061
transit 3062
100-30 3063
health 3064
benjamin 3065
weighed 3066
spectators 3067
bohdan 3068
clear 3069
socal 3070
weston-super-mare 3071
packers 3072
singled 3073
batters 3074
type 3075
hal 3076
sakigake 3077
aggressive 3078
harelbeke 3079
5.4 3080
durham 3081
understands 3082
begun 3083
jordanian 3084
arabic 3085
4,500 3086
backing 3087
juliet 3088
vojvodina 3089
considering 3090
446-9 3091
97.82 3092
holder 3095
mahanama 3096
implemented 3093
five 3094
crushed 3097
engaged 3098
representing 3099
sv 3100
sight 3101
84 3102
starting 3103
bhutto 3104
modest 3105
girl 3106
rarely 3107
distances 3108
jacques 3109
lived 3110
trax 3111
anwar 3112
uefa 3113
edge 3114
wrote 3115
discus 3116
gabriel 3117
eye 3118
anything 3119
jetty 3120
hawksworth 3121
vote 3122
accuracy 3123
tanaka 3124
make 3125
das 3127
search 3126
weaker 3128
contribution 3129
ried 3130
address 3131
sale 3132
empoli 3133
community 3134
breukink 3135
detained 3136
overpowered 3137
several 3138
surveillance 3139
10.5 3140
electricity 3141
unlikely 3142
gabriela 3143
hansen 3144
reversed 3145
christine 3146
profit-taking 3147
.357 3148
providing 3149
boats 3150
planks 3151
rios 3152
longitudinal 3153
.515 3154
weiss 3155
follows 3156
bedouin 3157
carlsbad 3158
components 3159
leaves 3160
population 3161
davey 3162
quest 3163
sixth-inning 3164
craiova 3165
equal 3166
projects 3167
goverment 3168
atletico 3169
cal 3170
nijmeh 3171
pachuca 3172
boatman 3173
put 3174
dec 3175
coulthard 3176
stayed 3177
munakarmi 3178
space 3179
fame 3180
marshall 3181
cricket 3182
damaged 3183
w. 3184
mundo 3185
frequently 3186
karina 3187
swardt 3188
shubei 3189
events 3190
moscow 3191
sandwich 3192
lincoln 3193
calendar 3194
about 3195
herbicides 3196
refuse 3197
kremin 3198
archbishop 3199
riyal 3200
sources 3201
piacenza 3202
bumped 3203
expansion 3204
private 3205
sorrento 3206
activist 3207
distributed 3208
dtb-bund-future 3209
perfected 3210
february 3211
seed 3212
stalemate 3213
bertelsmann 3214
easier 3215
plunged 3216
hijack 3217
was 3218
well-known 3219
14,000 3220
6-2 3221
bring 3222
10.0 3223
logged 3224
sued 3225
agent 3226
sidelines 3227
produce 3228
powers 3229
bid 3230
productive 3231
expectations 3232
cronulla 3233
used 3234
yasushi 3235
86 3236
ingot 3237
danger 3238
28th 3239
2009 3240
initiative 3241
machnee 3242
home-made 3243
federal 3244
horse 3245
swings 3247
enjoyed 3246
infusion 3248
two-year 3249
trucked 3250
mins 3251
exchange 3252
irregularities 3253
offers 3254
psa 3255
commonwealth 3256
hasina 3257
fishermen 3258
188 3259
watford 3260
billy 3261
galeforce 3262
tokyo 3263
writer 3264
548 3265
registration 3266
impressive 3267
best 3268
signal 3269
chong 3270
birthday 3271
acquired 3272
retained 3274
never 3273
rovers 3275
392-6 3276
belgium 3277
handgun 3278
off-spinner 3279
've 3280
patient 3281
receives 3282
mad 3283
semifinal 3284
vacek 3285
supermarkets 3286
2103 3288
return 3287
herschelle 3289
coastal 3290
prior 3291
rohrabacher 3294
khalq 3292
what 3293
actions 3295
massive 3296
rubens 3297
indicates 3298
men 3299
instantly 3300
introduced 3301
compromise 3302
strained 3303
glen 3304
innocent 3305
warring 3306
fagan 3307
pumps 3308
arazi 3309
factor 3310
suspended 3311
lloyds 3312
heathrow 3313
municipal 3314
ukyo 3315
helder 3316
jared 3317
mitchell 3318
demolished 3319
four 3320
leyton 3321
proprietary 3322
variety 3323
sk 3324
homes 3325
publicist 3326
ceo 3327
s 3328
initial 3329
remained 3330
northeastern 3331
petah 3332
! 3333
perkins 3334
continent 3335
layoffs 3336
p.w. 3337
ong 3338
inc 3339
lucerne 3340
casey 3341
effectively 3342
marc-vivien 3343
zickler 3344
d.a. 3345
setbacks 3346
upper 3347
seeing 3348
hoch 3349
blew 3350
helena 3351
ark 3352
31st 3353
tens 3354
meri 3355
relief 3356
rostov 3357
nilis 3358
expenditures 3359
weapons 3360
nearly 3361
declaration 3362
ties 3363
25-year-old 3364
italian 3365
come 3366
releases 3367
enforcement 3368
issued 3369
jamie 3370
quite 3371
ride 3372
r. 3373
means 3374
remove 3375
1673 3376
doubt 3377
asa 3378
barnsley 3379
164 3380
1230 3381
velodrome 3382
cotton 3383
sokol 3384
conducting 3385
announce 3386
bonds 3387
found 3388
chang 3389
38:42.015 3390
paul 3391
seguy 3392
pulp 3393
overall 3394
line 3395
cruces 3396
rolled 3397
knew 3398
packed 3399
33rd 3400
ventilation 3401
.430 3402
pump 3403
kamaz 3404
berkrot 3405
42 3406
include 3407
balance 3408
missing 3409
sachin 3410
anne-gaelle 3411
12,600-12,750 3412
allow 3413
talking 3414
spokeswoman 3415
grow 3416
video 3417
elections 3418
nottinghamshire 3419
.406 3420
11-8 3421
juha 3422
breakaway 3423
derek 3424
spell 3425
tutsis 3426
ease 3427
taiwan 3428
financing 3429
adequate 3430
869.3 3431
aynaoui 3432
identify 3433
144 3434
arab 3435
hitting 3436
candy 3437
brown 3438
recognition 3439
compound 3440
zicot 3441
cwt 3442
senate 3443
sandra 3444
etchebarren 3445
western 3446
filing 3447
teen 3448
lancien 3449
presidential 3450
euromark 3451
iranian 3452
davies 3453
estonian 3454
statoil 3455
received 3456
gdp 3457
bosnia 3458
purchasers 3459
seeking 3460
scheduled 3461
sadistic 3464
8.61 3462
possible 3463
tin 3465
announces 3466
m&r 3467
knup 3468
salzburg 3469
blood 3470
g 3471
19.6 3472
promoter 3473
slight 3474
19 3475
large 3476
michelle 3477
closes 3478
tomorrow 3479
brutal 3480
speeding 3481
.465 3482
saleh 3483
stolle 3484
romanian 3485
malik 3486
582 3487
lbw 3488
rotterdam 3489
masters 3490
.435 3491
98.4 3492
questioned 3493
ploughed 3494
toll 3495
toss 3496
skin 3498
jiangling 3497
sidot 3499
peoples 3500
enap 3501
straight 3502
reported 3503
items 3504
delight 3505
farmer 3506
nov. 3507
carlsen 3508
arrest 3509
ineligible 3510
neamt 3511
task 3512
supposed 3513
wear 3514
scunthorpe 3515
15-1 3516
bacterial 3517
ready 3518
not 3519
vietnamese 3520
immediately 3521
colonial 3522
lebanese 3523
riley 3524
barbara 3525
wished 3526
unbeaten 3527
disposable 3528
purepac 3529
arch 3530
3-1 3531
cedric 3532
released 3533
hear 3534
1996-08-29 3535
adult 3536
word 3537
linhart 3538
13-11 3539
pier 3540
warrants 3541
towards 3542
nobody 3543
penrith 3544
improve 3545
suwon 3546
bahn 3547
10-year-old 3548
prosecutors 3549
3,894.00 3551
taught 3550
punjab 3552
stabbed 3553
australians 3554
1800 3555
overwhelmingly 3556
see 3557
1986 3558
lanka 3559
6 3560
post-soviet 3561
banners 3562
management 3563
interpol 3564
squad 3565
interferon 3567
areas 3566
boy 3568
moody 3569
continued 3570
fans 3571
unemployment 3572
burmese 3573
resulted 3574
coverage 3575
dearest 3576
derivatives 3577
victoria 3578
skeid 3579
manner 3580
sa 3581
inspection 3582
scientist 3583
exhaustion 3584
finds 3585
islamabad 3586
georgalis 3587
voters 3588
sampdoria 3589
sixes 3590
anna 3591
slipping 3592
brokers 3593
replacing 3594
study 3595
gtr 3596
yield 3597
44 3598
crawley 3599
kdpi 3600
omer 3601
4.7 3602
mission 3603
120,000 3604
pulpex 3605
3.9 3606
renzo 3607
aires 3608
can 3609
4.20 3610
race 3611
11,500 3612
whitlinger 3613
siauliai 3614
nijmegen 3615
ischinger 3616
depth 3617
2.5 3618
claire 3619
6700.00 3620
vehicles 3621
ahead 3622
cargoes 3623
acre 3624
card 3625
aggression 3626
jumped 3627
54 3628
demanding 3629
inspired 3630
metre 3631
lloyd 3632
testimony 3633
typical 3634
teachers 3635
conflicts 3636
floor 3637
apartheid 3638
closures 3639
38:19.313 3640
9.5 3641
1990s 3642
flemming 3643
marlins 3644
inflows 3645
bombings 3646
half 3647
1976 3648
lengthy 3649
12 3650
rocks 3651
breathing 3652
oy 3653
herve 3654
merger 3655
returning 3656
martens 3657
recently 3658
economist 3659
locomotive 3660
sitanyi 3661
it 3662
murdoch 3663
prayer 3664
derails 3665
2,017.99 3666
debt 3667
corinthians 3668
scant 3669
lunches 3670
medicine 3671
11.25 3672
famed 3673
jays 3674
argentine 3675
bancomext 3676
beaten 3677
prize 3678
rwandan 3679
objections 3680
looks 3681
existed 3682
issuer 3683
wind 3684
drop 3685
views 3686
desk 3687
debris 3688
o.j. 3689
ballots 3690
bombers 3691
outfit 3692
resolve 3693
vt 3694
villages 3695
insurer 3696
roger 3697
1,900 3698
loko 3699
gopal 3700
football 3701
depend 3702
3. 3703
villa 3704
tonnes 3705
151 3706
4-35 3707
prices 3708
behind 3709
compliance 3710
berry 3711
museum 3712
hack 3713
praying 3714
arthur 3715
doboj 3716
bonn 3717
burundi 3718
total 3719
bernd 3720
plc 3721
chamber 3722
noble 3723
diplomats 3724
miner 3725
northamptonshire 3726
burst 3727
pecs 3728
away 3729
plants 3730
corporations 3731
thanked 3732
contests 3733
+22 3734
one-day 3735
ferreira 3736
beograd 3737
m4 3740
hcfa 3738
pm 3739
bullish 3741
increase 3742
agassi 3743
faces 3744
; 3745
confirmation 3746
117.9 3747
nawaz 3748
spokesman 3749
picture 3750
correction 3751
cork 3752
211 3753
8.22 3754
li 3755
fft 3756
14.16 3757
showed 3758
1912 3759
aflatoxin 3760
karsten 3761
launching 3762
12.5 3763
offences 3764
ran 3765
zifa 3766
alaniya 3767
insurgents 3768
tami 3769
cancer 3770
anton 3771
potentially 3772
freiburg 3773
brokered 3774
success 3775
serbian 3776
fence 3777
reiffel 3778
offenders 3779
blocked 3780
officials 3781
offer 3782
manage 3783
jet 3784
convene 3785
rica 3786
ukraine 3787
spartak 3788
sri 3789
movements 3790
kind 3791
fee 3792
.522 3793
gruppen 3794
30-share 3795
dr 3796
she 3797
krylya 3798
crr 3799
moisture 3800
jaffray 3801
[PAD_X] 10952
endorsed 3802
serbs 3803
alberta 3804
instead 3805
hostage 3806
16.66 3807
zealand 3808
pascal 3809
baptist 3810
cevaer 3811
unsure 3812
olympic 3813
parts 3814
2,000 3815
stable 3816
bbc 3817
3548 3818
truth 3819
focus 3820
english 3821
dnipro 3822
stenhousemuir 3823
vfl 3824
seasons 3825
production 3826
decree 3827
.02 3828
telling 3829
twyford 3830
viscose 3831
359 3832
jacqueline 3833
ironically 3834
sam 3835
1970 3836
baby 3837
462 3838
saved 3839
precedence 3840
kilos 3841
defeated 3842
marginally 3843
elusive 3844
884 3845
lb-3 3846
watson 3847
cincinnati 3848
11. 3849
.574 3850
reliever 3851
ironi 3852
joined 3853
+33 3854
pol 3855
founder 3856
rule 3857
raises 3858
1.85 3859
pre-tax 3860
diyarbakir 3861
four-day 3862
trafficking 3863
taha 3864
keeping 3865
gestures 3866
130.2 3867
eta 3868
benevolent 3869
miss 3870
60th 3871
lamb 3872
87 3873
78th 3874
darcy 3875
lynch 3876
haarlem 3877
aim 3878
batting 3879
4-53 3880
started 3881
neg 3882
soon 3883
dahshour 3884
ice 3885
nba 3886
headlines 3887
slipped 3888
panis 3889
assembly 3890
vegetables 3891
croatia 3892
concentrate 3893
carry 3894
reputation 3895
cruise 3896
cocktail 3897
ordinary 3898
blacks 3899
ill-fated 3900
wreckage 3901
ford 3902
bessemer 3903
addiction 3904
whales 3905
studentesc 3906
keller 3907
48.61 3908
provide 3909
bitter 3910
yugoslavia 3911
goldstein 3912
destruction 3913
38.0 3914
scandal 3915
trained 3916
disease 3917
labourers 3918
fulcheri 3919
aa3 3920
graf 3921
re-nomination 3922
amputated 3923
parting 3924
farms 3925
studying 3926
emnid 3927
14. 3928
, 3929
cholera 3930
especially 3931
sudanese 3932
volkova 3933
wins 3934
187 3935
harden 3936
hekmatyar 3937
102 3938
cooperating 3939
prievidza 3940
intent 3941
check 3942
baath 3943
fuel 3944
47.5 3945
quarracino 3946
difficult 3947
sharif 3948
bowler 3949
taxes 3950
criminals 3951
115 3952
351 3953
96.83 3954
super 3955
nasdaq 3956
tremila 3957
both 3958
85,000 3959
hunting 3960
monopoly 3961
expecting 3962
emissions 3963
ababa 3964
portland 3965
iliescu 3966
dismissed 3967
.455 3968
avenged 3969
john 3970
books 3971
finns 3972
radnicki 3973
owns 3974
dmitry 3975
sachs 3976
coconut 3977
lme 3978
aims 3979
losing 3980
occupied 3981
four-hour 3982
pds 3983
brother 3984
photos 3985
recognised 3986
26th 3987
krajicek 3988
regions 3989
baltika 3990
belgrade 3991
would 3992
therapies 3993
many 3994
employment 3995
liaison 3996
1948 3997
mayfair 3998
258 3999
156.00 4000
half-year 4001
month-end 4002
kurds 4003
confessed 4004
collectivisation 4005
dave 4006
were 4007
shortstop 4008
snap 4009
pauline 4010
fielding 4011
moya 4012
125cc 4013
margins 4014
dip 4015
page 4016
staying 4017
controls 4018
separation 4019
23. 4020
yates 4021
compatriot 4022
size 4023
181 4024
de 4025
presence 4026
8.57 4027
kurt 4028
load 4029
13.18 4030
moreau 4031
nature 4032
paes 4033
ounce 4034
75 4035
saturday 4036
hopefully 4037
standard 4038
maru 4039
2000 4040
transitional 4041
tiny 4042
flag 4043
mcmanaman 4044
peru 4045
museeuw 4046
infectious 4047
goulnara 4048
diniz 4049
vast 4050
something 4051
charlton 4052
chip 4053
imports 4054
relay 4055
strong 4056
arabs 4057
dem 4058
handling 4059
reaches 4060
roadblock 4061
dying 4062
bowed 4063
hock 4064
liabilities 4065
hidden 4066
312 4067
patrols 4068
tanks 4069
preparation 4070
india 4071
sint 4072
bahia 4073
car 4074
portugal 4075
switzerland 4076
los 4077
sad 4078
5.6 4079
novorossiisk 4080
changing 4081
uralmash 4082
luke 4083
ed 4084
birmingham 4085
2-1 4086
batistuta 4087
windows 4088
mountains 4089
kilda 4090
supplementary 4091
montreal 4092
bushel 4093
361 4094
archaeological 4095
george 4096
motorola 4097
tromso 4098
whatever 4099
saddam 4100
scoreboard 4101
prasad 4102
rdainah 4103
expressing 4104
bierhoff 4105
virus 4106
58th 4107
copenhagen 4108
equity 4109
boost 4110
yekaterinburg 4111
ujpest 4112
backwardation 4113
happy 4114
monthly 4115
consumer 4116
lords 4117
eduardo 4118
kristie 4119
oilseed 4120
baht 4121
rosenborg 4122
truck 4123
montana 4124
attracted 4125
acts 4126
fellow 4127
6368 4128
deny 4129
huizinga 4130
magali 4131
factors 4132
control 4133
footscray 4134
utrecht 4135
qualified 4136
younes 4137
naked 4138
439.9 4139
tax 4140
militia 4141
power 4142
franc 4143
marine 4144
funds 4145
popular 4146
atrocities 4147
srbska 4148
doctor 4149
undergone 4150
regular 4151
during 4152
sometimes 4153
'm 4154
scene 4155
feel 4156
etruria 4157
nastase 4158
allan 4159
either 4160
brent 4161
arafat 4162
stored 4163
medals 4164
137 4165
guarded 4166
natalya 4167
davids 4168
spiring 4169
scientists 4170
assertions 4171
thought 4172
kandahar 4173
1996-08-26 4174
nigerian 4175
case 4176
runway 4177
genoa 4178
patent 4179
corrigendum 4180
owens 4182
ethnic 4181
politically 4183
kabir 4184
jews 4185
historic 4186
+0,2 4187
as-safir 4188
brilliant 4189
element 4190
competitors 4191
dictatorial 4192
conquest 4193
gobert 4194
stealing 4195
montpellier 4196
legislation 4197
pension 4198
wish 4199
surrounded 4200
4,275 4201
salim 4202
ruth 4203
corini 4205
thompson 4204
diplomat 4206
artur 4207
stadler 4208
gwen 4209
verstappen 4210
enter 4211
roubles 4212
mit 4213
200 4214
2,400 4215
wasteful 4216
remarkable 4217
schumacher 4218
thinking 4220
habsudova 4219
records 4221
tanui 4222
cbsa 4223
maynard 4224
renegade 4225
accusing 4226
scheme 4227
illness 4228
rafferty 4229
munton 4230
dressed 4231
356 4232
enzo 4233
output 4234
pokka 4235
henderson 4236
cables 4237
finished 4238
andria 4239
molde 4240
palkhivala 4241
year-earlier 4242
north 4243
six 4244
serb-controlled 4245
gennadi 4246
spitzbergen 4247
rui 4248
fiorentina 4250
combatants 4249
salamanca 4251
infection 4252
mfs 4253
hutus 4254
15-10 4255
sprint 4256
amazon 4257
jesse 4258
infected 4259
moderate 4260
yevgeny 4261
blijlevens 4262
milk 4263
prospect 4264
victim 4265
carrier 4266
conversion 4267
recovery 4268
guided 4269
rosati 4270
carter 4271
easily 4272
rock 4273
384-6364 4274
estimate 4275
policemen 4276
theft 4277
earned 4278
bosnian 4279
universitatea 4280
odv 4281
trail 4282
coaches 4283
win 4284
.545 4285
kosice 4286
designated 4287
entirely 4288
result 4289
aluminum 4290
tabulated 4291
della 4292
absence 4293
sally 4294
justified 4295
supplies 4296
trade 4297
a.m. 4298
chorzow 4299
riot 4300
trends 4301
87th 4302
700 4303
payroll 4304
too 4305
767 4306
36 4307
cultures 4308
loren 4309
supporters 4310
temperatures 4311
curtis 4312
singer 4313
prescott 4314
lengths 4315
reinforcements 4316
felicia 4318
unable 4317
siam 4319
nicaraguan 4320
reduce 4321
argentina 4322
headache 4323
reverse 4324
tourist 4325
chili 4326
lenham 4327
bailey 4328
date 4329
gen'l 4330
rome 4331
ii 4332
gun 4333
punches 4334
situations 4335
.578 4336
6-4 4337
grip 4338
microfilm 4339
disqualification 4340
necessarily 4341
faldo 4342
moroccan 4343
bogeyed 4344
devices 4345
box 4346
refunding 4347
bourse 4348
run-up 4349
treating 4350
unlucky 4351
162 4352
galatasaray 4353
golan 4354
deep 4355
12-month 4356
10.10 4357
mine 4358
i. 4359
shakhtar 4360
ought 4361
driving 4362
shehu 4363
scam 4365
verified 4364
234,324 4366
branded 4367
blanked 4368
harding 4369
responsible 4370
waldbaum 4371
67,000 4372
damon 4373
collecting 4374
seguin 4375
trent 4376
veterans 4377
now 4378
reaction 4379
pendleton 4380
wreh 4381
ogilvy 4382
railway 4383
japanese 4384
alexandre 4385
insisting 4386
indore 4387
0.2 4388
nations 4389
terence 4390
guidelines 4391
u.s.-mediated 4392
14.2 4393
48 4394
bevan 4395
lankans 4396
trader 4397
clothes 4398
armenia 4399
july 4400
pablo 4401
luehrs 4402
forcing 4403
jitters 4404
2.00 4405
und 4406
showing 4407
two-day 4408
form 4409
cruzeiro 4410
e 4411
mcgrath 4412
2067 4413
recomposed 4414
parana 4415
chen 4416
grid 4417
narciso 4418
s&p 4419
itar-tass 4420
charge 4421
position 4422
primakov 4423
called 4424
industry 4425
bobby 4426
2,700 4427
tillstrom 4428
vincent 4429
vaughn 4430
malone 4431
sailing 4432
application 4433
1,000 4434
indicate 4435
tradition 4436
a.l. 4437
eichmann 4438
stormed 4440
clearance 4439
islam 4441
961 4442
reforms 4443
aslan 4444
conflict 4445
spongiform 4446
whites 4447
fitness 4448
software 4449
106.5 4450
bosnians 4451
tibet 4452
celica 4453
baseball 4454
denoms 4455
dan 4456
1.2 4457
clock 4458
emon 4459
revive 4460
tamil 4461
became 4462
outscored 4463
opens 4464
plate 4465
1998 4466
amoco 4467
somewhat 4468
animal 4469
delayed 4470
bones 4471
ewe 4472
03/09 4473
palestinians 4474
doncaster 4475
peres 4476
cost 4477
performance 4478
blast 4479
nuclear 4480
teutenberg 4481
streets 4482
fell 4483
soviet 4484
mokhoff 4485
values 4486
326 4487
dead 4488
moxon 4489
bringing 4490
wheat 4491
looking 4492
slashed 4493
throne 4494
dollar 4495
billet 4496
kerametal 4497
fis 4498
elect 4499
properties 4500
interrupted 4501
ing 4502
scrap 4503
australia 4504
dhabi 4505
they 4506
bangladeshi 4507
amnesty 4508
very 4509
husqvarna 4510
declined 4511
facilities 4512
hinchcliffe 4513
likely 4514
indigenous 4515
citing 4516
algiers 4517
dictator 4518
fly 4519
dealers 4520
shooting 4521
had 4522
ricky 4523
jan-june 4524
selling 4525
jc 4526
61.36 4527
conservative 4528
great 4529
determining 4530
corrects 4531
occurred 4532
dissidents 4533
newell 4534
maj 4535
banda 4536
carries 4537
being 4538
uncertainty 4539
oscar 4540
859-1610 4541
sound 4542
khaleda 4543
charged 4544
dawn 4545
rangarajan 4546
dubnica 4547
1984 4548
hijacking 4549
32nd 4550
derailed 4551
27th 4552
specter 4553
due 4554
fitted 4555
fielded 4556
usa 4557
lifts 4558
mccullough 4559
reconvene 4560
holders 4561
mother 4562
storming 4563
jeroen 4564
valkov 4565
unrest 4566
aston 4567
denote 4568
dynamo 4569
briton 4570
road 4571
calf 4572
through 4573
colony 4574
170 4575
68 4576
engine 4577
primedia 4578
golf 4579
monetary 4580
355 4581
cherbourg 4582
brought 4583
high 4584
rammed 4585
create 4586
culhane 4587
slaughter 4588
abdul-karim 4589
shop 4590
feinstein 4591
makers 4592
permanent 4593
reviews 4594
face 4595
lome 4596
nitrofuran 4597
31/8 4598
australian 4599
smoothly 4600
adventurers 4601
rameswaram 4602
487 4603
underlying 4604
1. 4605
latin 4606
blaming 4607
sellers 4608
compassion 4609
currencies 4610
accident 4611
robinson 4612
legia 4613
ton 4614
3,907.5 4615
creation 4616
brussels 4617
kidnapped 4618
13 4619
weakened 4620
families 4621
pledge 4622
helibor 4623
les 4624
1.7 4625
influx 4626
gates 4627
cautious 4628
world 4629
chinese 4630
bulgaria 4631
zirka-nibas 4632
mandela 4633
yes 4634
verisign 4635
fla. 4636
parents 4637
diet 4638
announcing 4639
206 4640
.573 4641
karvina 4642
brigita 4643
camera 4644
roshan 4645
kantharoopan 4646
post-match 4647
sky 4648
jun 4649
pantic 4650
wang 4651
dubbed 4652
tracks 4653
slim 4654
offering 4655
press 4656
drift 4657
4-0 4658
husband 4659
120.5 4660
shelled 4661
slips 4662
coltart 4663
exploration 4664
claims 4665
v 4666
taxable 4667
jack 4668
survey 4669
sweden 4670
rally 4671
2,563.16 4672
tass 4673
8.12 4674
dissolve 4675
solid 4676
damage 4677
paedophile 4678
millns 4679
flourish 4680
charity 4681
chairman 4682
lattakia 4683
championship 4684
established 4685
benin 4686
rostock 4687
rabinovich 4688
run-scoring 4689
ailing 4690
neither 4691
markov 4692
downwards 4693
4.30 4694
tendinitis 4695
company 4696
bernard 4697
fallen 4698
outbreak 4699
simple 4700
austria 4701
kamio 4702
program 4703
encephalopathy 4704
contaminated 4705
yellow 4706
32.8 4707
airport 4708
averages 4709
cameroon 4710
equitas 4711
specialist 4712
lineup 4713
fields 4714
passing 4715
guinean 4716
samsung 4717
corps 4718
d 4719
hansa 4720
feasible 4721
wakefield 4722
0.27 4723
1500 4724
leaving 4725
orii 4726
wrexham 4727
ligier 4728
bird 4729
resumption 4730
jana 4731
re-examine 4732
lobby 4733
rostselmash 4734
british 4735
wacker 4736
suggested 4737
dimitris 4738
fifth 4739
eager 4740
mansfield 4741
preference 4742
col 4743
akron 4744
praising 4745
navy 4746
auctions 4747
pvs 4748
striker 4749
birnberg 4750
25,000 4751
places 4752
seles 4753
baldato 4754
67 4755
framework 4756
journalism 4758
fixture 4757
5.9 4759
va 4760
allege 4761
siraj 4762
legs 4763
14,390.7 4764
crohn 4765
corruption 4766
egyptian 4767
iraqi 4768
physically 4769
his 4770
triumphal 4771
chilli 4772
proclamation 4773
tel 4774
systems 4775
deaths 4776
reagan 4777
astros 4778
full 4779
sent 4780
baeron 4781
convent 4782
fill 4783
rifle 4784
puchon 4785
workington 4786
softbank 4787
straits 4788
laying 4789
226 4790
guinness 4791
andrews 4792
9th 4793
sawamatsu 4794
bales 4795
smugglers 4796
hostility 4797
brasov 4798
morinville 4799
lifted 4800
en 4801
filled 4802
offal 4803
joy 4804
miracle 4805
312-408-8720 4806
awami 4807
relegated 4808
following 4809
roche 4810
granic 4811
deposit 4812
10.03 4813
oversold 4814
doping 4815
dejan 4816
turning 4817
brigade 4818
flushing 4819
judith 4820
ecological 4821
9.1 4822
revolution 4823
mon 4824
28,000 4825
abdul 4826
bangladesh 4827
wine 4828
conference 4829
nazi 4830
trim 4831
alicia 4832
exit 4833
sean 4834
transkaryotic 4835
decade 4836
acquisition 4837
davidson 4838
putting 4839
fiscal 4840
appearances 4841
shaken 4842
1978 4843
versions 4844
new 4845
signed 4846
sign 4847
paralysed 4848
religious 4849
0.02 4850
markka 4851
three-run 4852
borsuk 4853
yards 4854
iso 4855
14.5 4856
starter 4857
alight 4858
30th 4859
feed 4860
wild 4861
brush 4862
edison 4863
adjusted 4864
raise 4865
peace 4866
lada 4867
sporting 4868
chipping 4869
pretty 4870
147.159 4871
sell-off 4872
416 4873
23 4874
3.30 4875
trophy 4876
rba 4877
destined 4878
swede 4879
pelletreau 4880
companies 4881
maputo 4882
berkshire 4883
mostostal 4884
nothing 4885
foreigners 4886
pound 4887
ryan 4888
manufacturing 4889
sovereignty 4890
south 4891
bme 4892
susan 4893
available 4894
difficulties 4895
francesco 4896
dropping 4897
barred 4898
boxcar 4899
gear 4900
skills 4901
wartime 4902
decline 4903
fate 4904
secondary 4905
clemens 4906
trln 4907
functioning 4908
list 4909
katayama 4910
gains 4911
vladimir 4912
washington 4913
structure 4914
procedure 4915
individuals 4916
47.93 4917
wilander 4918
services 4919
peacemaker 4920
unwinding 4921
chan 4922
showdown 4923
motion 4924
pennsylvania 4925
brighter 4926
depending 4927
consumers 4928
kickoff 4929
restructuring 4930
hopes 4931
brasilia 4932
n 4933
rittner 4934
ends 4935
solidify 4936
gras 4937
2.03 4938
shatoi 4939
maoist 4940
entered 4941
five-hitter 4942
27-year-old 4943
frowick 4944
ian 4945
munich 4946
civil 4947
0.05 4948
home 4949
abu 4950
estates 4951
teacup 4952
forsbrand 4953
barnet 4954
bremen 4955
subsequently 4956
halt 4957
a.s. 4958
percent 4959
yeltsin 4960
maruyama 4961
suvit 4962
pavel 4963
armed 4964
dodgers 4965
sandstod 4966
brand 4967
grobbelaar 4968
belchatow 4969
motorcycling 4970
366 4971
sen 4972
wrong 4973
208.442 4974
olsztyn 4975
salang 4976
naval 4977
metropolitan 4978
fairmont 4979
alarm 4980
feeder 4981
lietti 4982
35th 4983
10th 4984
hinterland 4985
33.0 4986
stockport 4987
guy 4988
austrian 4989
signalled 4990
exercise 4991
zimbabwe 4992
xhosa 4993
dacom 4994
scientific 4995
arrows 4996
somebody 4997
drove 4998
mean 4999
defied 5000
centred 5001
1958 5002
weakening 5003
consider 5004
45th 5005
79th 5006
169 5007
indeed 5008
possibility 5009
1,400 5010
eyes 5011
forget 5012
defeating 5013
swebus 5014
penn 5015
dispute 5016
muzaffarabad 5017
detailing 5018
valle 5019
represent 5020
rebels 5021
roxbury 5022
chuck 5023
156 5024
setting 5025
overthrow 5026
gloria 5027
wife 5028
arges 5029
las 5030
children 5031
aa2 5032
juppe 5033
netherlands 5034
squads 5036
1631 5035
select 5037
afghan 5038
royal 5039
registering 5040
traded 5041
proposals 5042
tries 5043
negocios 5044
honduras 5045
urge 5046
complex 5047
bsm 5048
leopold 5049
eight-year-old 5050
threats 5051
akram 5052
promise 5053
stocks 5054
neo-nazism 5055
train 5056
2.40 5057
gas 5058
feeling 5059
canonica 5060
.569 5061
rtrs 5062
sofia 5063
milosevic 5064
satoshi 5065
bureau 5066
montgomerie 5067
lunch 5068
checkfree 5069
prepare 5070
restaurants 5071
site 5072
northwestern 5073
revenues 5074
location 5075
moada 5076
toronto-based 5077
majority 5078
argued 5079
indiana 5080
principal 5081
assure 5082
cvrd 5083
suffers 5084
w-7 5085
work 5086
taxi 5087
duncan 5088
spd 5089
willie 5090
fiancee 5091
105 5092
assn 5093
fierce 5094
spate 5095
anybody 5096
zia 5097
invitation 5098
agencies 5099
aleksander 5100
caltex 5101
mps 5102
bond 5103
majors 5104
light 5105
letter 5106
286 5107
arguing 5108
hanged 5109
3,000 5110
botham 5111
controllers 5112
ferrari 5113
whittall 5114
9-15 5115
ibrahim 5116
disposal 5117
amsterdam-rotterdam-antwerp 5118
meanwhile 5119
one 5120
evans 5121
bobic 5122
qidra 5123
liberia 5124
lagos 5125
mario 5126
qualify 5127
combination 5128
g. 5129
prove 5130
fighting 5131
suggesting 5132
chains 5133
ihc 5134
domestic 5135
oliveira 5136
director 5137
lg 5138
sven 5139
taylor 5140
dogs 5141
chindia 5142
drifted 5143
attributed 5144
contacted 5145
2.2 5146
budapest 5147
sportul 5148
massoud 5149
algerians 5150
emphasis 5151
nowhere 5152
damascus 5153
peak 5154
radulescu 5155
+27 5156
repeat 5157
stores 5158
turkish 5159
vicorp 5160
drugs 5161
boutros 5162
prompted 5163
broader 5164
nursing 5165
7 5166
cdu 5167
blocking 5168
37-year-old 5169
crowd 5170
kournikova 5171
chester-le-street 5172
grabb 5173
citizen 5174
nuour 5175
fusai 5176
specify 5177
38:18.759 5178
sfeir 5179
cities 5180
mining 5181
mariners 5182
warned 5183
topolcany 5184
protest 5185
membership 5186
prisoners 5187
risk 5188
chosen 5189
adoptive 5190
upstaged 5191
down 5192
umbrella 5193
tap 5194
schaller 5195
umpires 5196
69-60 5197
made 5198
k. 5199
randy 5200
8.00 5201
oppose 5202
ponting 5203
likud 5204
11-2 5205
present 5206
banik 5207
written 5208
trapped 5209
wiesner 5210
moment 5211
8-15 5212
dunajska 5213
kumara 5214
zenith 5215
masked 5216
drachmas 5217
rangoon 5218
abbey 5219
cairns 5220
provision 5221
seedings 5222
roda 5223
2173 5224
leeds 5225
vince 5226
4.00 5227
blind 5228
longer 5229
zaman 5230
65 5231
schalke 5232
laurence 5233
2p 5234
hrw 5235
ending 5236
turkey 5237
opposes 5238
beaver 5239
skopje 5240
1991 5241
akashi 5242
strip 5243
finance 5244
foreign 5245
pieters 5246
hamas 5248
newsdesk 5247
molenbeek 5249
worcester 5250
10-year 5251
2123 5252
lasting 5253
heartbeat 5254
chicken 5255
advantage 5256
stephens 5257
derrick 5258
kiev 5259
side 5260
angeles 5261
nz$ 5262
walking 5263
invading 5264
mentmore 5265
wodzislaw 5266
walked 5267
fixing 5268
vladikavkaz 5269
began 5270
country 5271
30,000 5272
fatkoullina 5273
technical 5274
warnings 5275
fabien 5276
read 5277
requires 5278
cleansing 5279
15-13 5280
jimmy 5281
secret 5282
nicolas 5283
stubborn 5284
wait 5285
scored 5286
enthusiasm 5287
ban 5288
climbed 5289
195 5290
year 5291
hard 5292
marcin 5293
surrounding 5294
osteoporosis 5295
swimming 5296
146 5297
movement 5298
1.38 5299
warburg 5300
hentgen 5301
nominated 5302
rowing 5303
km 5304
8:22:00 5305
on-line 5306
majorities 5307
hamilton 5308
common 5309
status 5310
1578 5311
beating 5312
veteran 5313
aimed 5314
protects 5315
approved 5318
flags 5316
corretja 5317
minority 5319
pressing 5320
vatican 5321
misael 5322
once 5323
apr 5324
boldon 5325
refugees 5326
discount 5327
17-16 5328
v. 5329
coceres 5330
trials 5331
norwich 5332
livestock 5333
aei 5334
coming 5335
exact 5336
crippled 5337
belief 5338
4. 5339
highway 5340
goalkeepers 5341
mar 5342
purchased 5343
provs 5344
austerity 5345
engineering 5346
cycling 5347
extend 5348
eau 5349
nasr 5350
remote 5351
336.47 5352
9. 5353
competitive 5354
fever 5355
africa 5356
towers 5357
deficits 5358
liquor 5359
99.95 5360
f.w. 5361
privatisation 5362
roberto 5363
prostitutes 5364
ruling 5365
sullivan 5366
riga 5367
graafschap 5368
launches 5369
1.50 5370
debbah 5371
daniel 5372
campaigned 5373
wisinga 5374
sainz 5375
outlook 5376
portsmouth 5377
kv 5378
weinstein 5379
-- 5380
represented 5381
cnr 5382
mill 5383
daewoo 5384
pornography 5385
scepticism 5386
hendrika 5387
derbyshire 5388
lending 5389
birdie 5390
reflected 5391
2-1-4-0 5392
nadu 5394
couple 5393
4221 5395
kongsvinger 5396
preconditions 5397
pronounced 5398
cannes 5399
motive 5400
threatening 5401
matagalpa 5402
plzen 5403
govt 5404
closer 5405
while 5406
francs 5407
jiang 5408
obtaining 5409
indonesian 5410
molotov 5411
sporadic 5412
believes 5413
1996 5414
surabaya 5415
1,700 5416
jobless 5417
waugh 5418
hardly 5419
substitute 5420
wellman 5421
closed 5422
proceeds 5423
crime 5424
rebellion 5425
so-called 5426
springboks 5427
lower 5428
byron 5429
hair 5430
1000 5431
jackson 5432
entering 5433
distribute 5434
bonilla 5435
thinks 5436
59th 5437
motors 5438
buses 5439
duty 5440
aki 5441
monitoring 5442
309 5443
creating 5444
duties 5445
aware 5446
silva 5447
halls 5448
4.4 5449
watts 5450
missile 5451
suffer 5452
expenses 5453
tents 5454
territory 5455
coaching 5456
costantino 5457
marcel 5458
rockies 5459
attracts 5460
aaxis 5461
berasategui 5462
35-year-old 5463
tehran 5464
temporary 5465
sectors 5466
commercial 5467
zemun 5468
palmeiras 5469
match 5470
mandate 5471
sierakowice 5472
alexander 5473
bad 5474
japan 5475
evolution 5476
ftse 5477
republika 5478
karpaty 5479
giovanni 5480
86th 5481
eventual 5482
chamorro 5483
finally 5484
hedblom 5485
charleston 5486
albanians 5487
camerlengo 5488
prix 5489
julio 5490
250,000 5491
bscher 5492
sharpe 5493
larry 5494
vice-president 5495
quartet 5498
ways 5496
zte 5497
biggest 5499
shy 5500
cozma 5501
t$ 5502
6-0 5503
occurs 5504
randall 5505
equivalent 5506
johansson 5507
insider 5508
gul 5509
article 5510
populist 5511
retirement 5512
silke 5513
years 5514
seconds 5515
jose 5516
skipper 5517
shutdown 5518
watched 5519
volcano 5520
stationery 5521
domingos 5522
climb 5523
belmondo 5524
meligeni 5525
help 5526
assault 5527
ethiopia 5528
pro-government 5529
triple 5530
stoichkov 5531
neighbours 5532
foil 5533
anke 5534
kassala 5535
tankan 5536
young 5537
racial 5538
precious 5539
eight-year-olds 5540
haifa 5541
training 5542
agents 5543
secure 5544
681 5545
studenikova 5546
31 5547
campana 5548
bournemouth 5549
declaring 5550
confused 5551
creutzfeldt-jakob 5553
ad 5552
on 5554
128.6 5555
10no 5556
outside 5557
11-15 5558
cetes 5559
soybeans 5560
spot 5561
consortium 5562
41.0 5563
kevin 5564
meat 5565
fourth 5566
pursuit 5567
sales 5568
plugged 5569
melbourne 5570
cannon 5571
attract 5572
celebration 5573
spleens 5574
association 5575
enjoy 5576
nicholas 5577
vigilance 5578
whose 5579
manufacture 5580
poised 5581
janeiro 5582
eddie 5583
borders 5584
star 5585
plan 5586
morelia 5587
sugar 5588
months 5589
sprinter 5590
crowds 5591
pakistan-ruled 5592
indefinitely 5593
actually 5594
dye 5595
denotes 5596
central 5597
39 5598
sbc 5599
eec 5600
fun 5601
17 5602
blackburn 5603
heavier 5604
crowley 5605
liu 5606
aravinda 5607
shook 5608
dropped 5609
developments 5610
because 5611
koerts 5612
21 5613
felons 5614
raphanel 5615
83 5616
television 5617
executive 5618
ronald 5619
juan 5620
background 5621
makes 5622
sanchez 5623
ezer 5624
romantic 5625
registry 5626
mg-technogym 5627
osce 5628
kaluwitharana 5629
manila 5630
unclear 5631
manuscript 5632
unarmed 5633
852 5634
388.55 5635
requested 5636
torrens-valero 5637
roberts 5638
rhetoric 5639
advancing 5640
f 5641
dishonest 5642
utility 5643
sic 5644
nbh 5645
bse 5646
checking 5647
400,000 5648
yard 5649
gonzalez 5650
nunthorpe 5651
concluded 5652
kinshasa 5653
example 5654
samara 5655
joakim 5656
loxley 5657
chief 5658
4-80 5659
marino 5660
rajavi 5661
southampton 5662
trampled 5663
almost 5664
abuses 5665
1-6 5666
+44 5667
wong 5668
13-year 5669
bongo 5670
hang 5671
investigated 5672
depressed 5673
x 5674
subject 5675
quickly 5676
aek 5677
vol 5678
ikimi 5679
most 5680
mironivka 5681
phnom 5682
henrietta 5683
bells 5684
0-2 5685
before 5686
12.92 5687
earmarked 5688
works 5689
academy 5690
castle 5691
willing 5692
ab 5693
homers 5694
features 5695
dha 5696
jablonec 5697
impossible 5698
smoltz 5699
drug 5700
ongoing 5701
504 5702
wet 5703
mgr 5704
5-7 5705
upward 5706
life 5707
14-7 5708
stopped 5709
attributable 5710
expects 5711
has 5712
fitch 5713
welsh 5714
malta 5715
played 5716
65,000 5717
levy 5718
anniversary 5719
interfere 5720
iss 5721
reoffer 5722
breaks 5723
proceed 5724
tough 5725
8 5726
winds 5727
hall 5728
nurses 5729
lokomotiv 5730
warehouses 5731
baa1 5732
woodbridge 5733
published 5734
20th 5735
1952 5736
meditation 5737
maintain 5738
bilateral 5739
jonk 5740
extraordinary 5741
beit 5742
audi 5743
jamaican 5744
stanojlovic 5745
200-an-hour 5746
715 5747
highs 5748
vnu 5749
oldham 5750
aex 5751
e. 5752
efforts 5753
stewart 5754
89th 5755
croatian 5756
hampered 5757
teenager 5758
grandparents 5759
confirmed 5760
prolific 5761
4.3 5762
weibring 5763
breakdown 5764
throwing 5765
businesses 5766
.527 5767
botswana 5768
ferrigato 5769
lille 5770
digital 5771
peaks 5772
concentrating 5773
.469 5774
separatist 5775
settlement 5776
alberto 5777
anywhere 5778
seiki 5779
lebanon 5780
poll 5781
groups 5782
rifles 5783
remain 5784
tremendous 5785
historical 5786
memorandum 5787
conduct 5788
statistics 5789
majesty 5790
92 5791
planted 5792
carlsson 5793
shaking 5794
costs 5795
stenning 5796
sick 5797
did 5798
protected 5799
hopeful 5800
denies 5801
graz 5802
sheepmeat 5803
set-top 5804
porto 5805
kelly 5806
20.45 5807
grant 5808
slogans 5809
newcrest 5810
drivers 5811
expelled 5812
ali 5813
hajduk 5814
tom 5815
0.7 5816
composer 5817
10.14 5818
hu 5819
richter 5820
objective 5821
2-2 5822
shadab 5823
gm 5824
odnosum 5825
donovan 5826
cuba 5827
crashed 5828
clot 5829
38:32.719 5830
right 5831
kong 5832
iii 5833
enemies 5834
chester 5835
toluca 5836
injuring 5837
cancellation 5838
+49 5839
june 5840
locally 5841
dealt 5842
apparent 5843
.457 5844
quitting 5845
chisinau 5846
4-334 5847
battle 5848
akam 5849
telecoms 5850
simpson 5851
supercup 5852
kuna 5853
hurte 5854
towns 5855
estate 5856
alejandro 5857
suneson 5858
firearm 5859
malu 5860
defiance 5861
parliament 5862
manages 5863
reasons 5864
threatened 5865
bidders 5866
atmosphere 5867
buggy 5868
cargill 5869
state-run 5870
operate 5871
legislative 5872
rounds 5873
mentor 5874
of 5875
szonn 5876
santiago 5877
rankings 5878
imported 5879
merlene 5880
deliver 5881
explosive 5882
denounce 5883
thieves 5885
acquiring 5884
applied 5886
identities 5887
10-1-36-2 5888
demand 5889
producer 5891
soft 5890
statesman 5892
armoured 5893
kotlarska 5894
cocked 5895
xavier 5896
4:17.696 5897
ferhaoui 5898
interval 5899
funded 5900
1-1/2 5901
8.62 5902
yugoslav 5903
human 5904
zizkov 5905
viking 5906
600,000 5907
nicol 5908
indices 5909
swindon 5910
repaid 5911
give 5912
saskatchewan 5913
birendra 5914
income 5915
autonomy 5916
4-36 5917
generally 5918
painted 5919
breakfast 5920
age 5921
haarhuis 5922
1-0 5923
barzani 5924
buyoya 5925
11.7 5926
midnight 5927
kwasniewski 5928
1,100 5929
short-term 5930
bose 5931
edition 5932
stomach 5933
matthew 5934
get 5935
254 5936
242 5937
successive 5938
... 5939
beer 5940
convictions 5941
incentives 5942
82-96f 5943
dr. 5944
emotional 5945
montolio 5946
tales 5947
unearthed 5948
acknowledged 5949
foster 5950
outstanding 5951
rifkind 5952
obviously 5954
sammy 5953
relegation 5955
kamyshin 5956
killer 5957
mummies 5958
vessels 5959
kontogiannis 5960
overseas 5961
simian 5962
57th 5963
insisted 5964
7-4 5965
song 5966
owner 5967
combined 5968
requiring 5969
consulting 5970
contain 5971
garry 5972
appointed 5973
improvement 5974
sebastien 5975
players 5976
drunks 5977
wolk 5978
fluminense 5979
1.1 5980
thrown 5981
week 5982
unlisted 5983
replacements 5984
stepped 5985
kills 5986
500 5987
replaced 5988
sea 5989
juergen 5990
boj 5991
army 5992
251 5993
scorpion 5994
helicopter 5995
290.00 5996
7-9 5997
danny 5998
favoured 5999
punishment 6000
15-6 6001
feugill 6002
impression 6003
7.8 6004
to 6005
miners 6006
ltd 6007
note 6008
beach 6009
sergei 6010
condition 6011
outperform 6012
raped 6013
kschwendt 6014
pete 6015
pauli 6016
521 6017
green 6018
ines 6019
morton 6020
lankan 6021
hristo 6022
mills 6023
marriner 6024
newcastle 6025
motorway 6026
tying 6027
l 6028
worldcom 6029
passenger 6030
grenades 6031
arrests 6032
8.15 6033
soybean 6034
rising 6035
supporting 6036
199 6037
66 6038
loaded 6039
added 6040
activities 6041
cut 6042
environment 6043
post-war 6044
flying 6045
cleared 6046
havre 6047
republicans 6048
volunteers 6049
backs 6050
combines 6051
going 6052
groin 6053
gujral 6054
wide 6055
bases-loaded 6056
editorial 6057
enschede 6058
larnaca 6059
sweeping 6060
outcome 6061
129 6062
plus 6063
gpg 6064
swimmer 6065
penalties 6066
phan 6067
rejecting 6068
clarence 6069
watching 6070
tighten 6071
frame 6072
elephant 6073
strategist 6074
oil 6075
investments 6076
women 6077
himalayan 6078
headley 6079
finishing 6080
superstores 6081
dated 6082
trucks 6083
obligations 6084
clearly 6085
tunisia 6086
adopted 6087
kulti 6088
seized 6089
grows 6090
inning 6091
fi 6092
parry 6093
census 6094
prostitute 6095
hopefuls 6096
wolverhampton 6097
strict 6098
violations 6099
botafogo 6100
gatera 6101
shuzo 6102
genocide 6103
rulers 6104
nic 6105
constitution 6106
account 6107
elaborating 6108
semifinalist 6109
impunity 6110
stranded 6111
introduce 6112
sellberg 6113
gail 6114
boundary 6115
kuwait 6116
chances 6117
chiron 6118
modem-chip 6119
keen 6120
first 6121
inspector 6122
suarez 6123
probe 6124
peso 6125
raft 6126
albanian 6127
earliest 6128
horvath 6129
retired 6130
caveglia 6131
columbia 6132
brett 6133
romesh 6134
belgian 6135
jammed 6136
zyrecha 6137
again 6138
branch 6139
summit 6140
460 6141
.528 6142
male 6143
thousand 6144
beginning 6145
pass 6146
becej 6147
fat 6148
except 6149
kingdom 6150
nathalie 6151
victor 6152
curran 6153
cross-border 6154
hansma 6155
allen 6156
afternoon 6157
bacillus 6158
military 6159
character 6160
jeffrey 6161
cambodia 6162
reasonable 6163
up 6164
kocinski 6165
2/3 6166
anti-nuclear 6167
matin 6168
171 6169
11-4 6170
property 6171
coordinate 6172
teenaged 6173
cancelled 6174
juniors 6175
rejoined 6176
300,000 6177
twice 6178
defeat 6179
expanding 6180
mayor 6181
tomb 6182
borac 6183
monde 6184
1600 6185
lamm 6186
belga 6187
quarter 6188
cbi 6189
medium 6190
imminent 6191
gyaicain 6192
conclusion 6193
ensure 6194
diverted 6195
spla 6196
might 6197
favorable 6198
reconciliation 6199
merely 6200
congress 6201
kralove 6202
puk 6203
unbeatable 6204
near-term 6205
200,000 6206
myth 6207
holiday 6208
2:28.98 6209
unity 6210
revolutionary 6211
gte 6212
marchal 6213
rewarded 6214
42.5 6215
shane 6216
bystrica 6217
298-6 6218
poor 6219
joe 6220
comex 6221
optimistic 6222
brady 6223
import 6224
machines 6225
holding 6226
expensive 6227
charleroi 6228
tested 6229
parsons 6230
pontiac 6231
huddersfield 6232
sadiki 6234
.473 6233
bjorn 6235
regard 6236
first-half 6237
pyman 6238
unworthy 6239
linford 6240
tillekeratne 6241
ismail 6242
kathmandu 6243
fowler 6245
strikers 6244
guerrillas 6246
espinho 6247
15.00 6248
reiterated 6249
january 6250
bunce 6251
53rd 6252
novelist 6253
corp 6254
jing-qian 6255
theybers 6256
embargo 6257
precise 6258
today 6259
low-lying 6260
800,000 6261
second 6262
voter 6263
construction 6264
salaries 6265
end-of-season 6266
social 6267
1 6268
consult 6269
criticised 6270
attack 6271
bln 6272
eric 6273
metro 6274
edward 6275
butch 6276
kallis 6277
hurdle 6278
smith 6279
agreed 6280
presov 6281
violeta 6282
34 6283
swing 6284
55 6285
politehnica 6286
madagascar 6287
protesters 6288
relive 6289
potential 6290
indicated 6291
eveningperformance 6292
bullion 6293
warm-up 6294
oppenheimer 6295
demonstration 6296
only 6297
wycombe 6298
furnace 6299
pots 6300
81 6301
marriage 6302
kris 6303
pride 6304
4,000 6305
houses 6306
strengthen 6307
state-owned 6308
vorskla 6309
thousands 6310
nikkei 6311
brandes 6312
dutchman 6313
fogarty 6314
suffered 6315
alessandro 6316
rain 6317
incompatible 6318
ben 6319
searching 6320
troops 6321
are 6322
superbike 6323
reorganisation 6324
letters 6325
missionaries 6326
chris 6327
0800 6328
chilean 6329
lost 6330
regularly 6331
actor 6332
7-1 6333
15th 6334
res 6335
apply 6336
tigers 6337
hakkari 6338
ft 6339
midfielder 6340
smuggling 6341
cool 6342
benazir 6343
partick 6344
arantxa 6345
first-round 6346
43.0 6347
kathy 6348
mothers 6349
934 6350
draper 6351
higher 6352
3.8 6353
shell 6354
justice 6355
473 6356
bugno 6357
prison 6358
robbie 6359
some 6360
underway 6361
5017 6362
recover 6363
virginia 6364
barley 6365
manufacturers 6366
subsidiary 6367
pescosolido 6368
pitkowski 6369
bankruptcy 6370
/ 6371
bed 6372
+0.05 6373
nottingham 6374
knowledge 6375
dealer 6376
expulsion 6377
vomiting 6378
maslova 6379
fraud 6380
jr 6381
triumph 6382
faced 6383
witschge 6384
glimt 6385
guest 6386
origin 6387
demolition 6388
94 6389
pollock 6390
uses 6391
approve 6392
kurdish 6393
tony 6394
minnesota 6395
orthodox 6396
tea 6397
visited 6398
2.43 6399
tobacco 6400
w-1 6401
airspace 6402
seve 6403
speech 6404
election 6405
money 6406
terms 6407
0.45 6408
tasks 6409
producers 6410
et 6411
wa 6412
doubles 6413
bars 6414
mia 6415
88 6416
leave 6417
1791 6418
journalist 6419
77 6420
contract 6421
repair 6422
proceedings 6423
hijacked 6424
slowly 6425
don 6426
lots 6427
shelter 6428
14th 6429
mostly 6430
plane 6431
dog 6432
fernandez 6433
suburb 6434
polling 6435
minutes 6436
.496 6437
521-8 6438
special 6439
dostum 6440
udinese 6441
capitalization 6442
speeches 6443
miller 6444
colleague 6445
hanging 6446
explanation 6447
hanover 6448
supposedly 6449
quarterly 6450
sophisticated 6451
ship 6453
assets 6452
o'leary 6454
appear 6455
celebrated 6456
uphill 6457
armstrong 6458
continuous 6459
observed 6460
stomil 6461
fairly 6462
other 6463
+2 6464
overtake 6465
frontier 6466
cska 6468
democracy 6467
reintegration 6469
non-traditional 6470
cook 6471
4.2 6472
shaun 6473
neglected 6474
shoes 6475
after-hours 6476
marsh 6477
paranaense 6478
87.5 6479
suppliers 6480
108 6481
38.08 6482
boycotting 6483
zhirinovsky 6484
joyce 6485
alone 6486
quake 6487
moves 6488
acquire 6489
invited 6490
profitability 6491
snyman 6492
mid-august 6493
419 6494
louise 6495
carmaker 6496
certainly 6497
frenchman 6498
cross 6499
5. 6500
2361 6501
jimenez 6502
costly 6503
employed 6504
karen 6505
off 6506
kilometres 6507
795 6508
flames 6509
dinamo 6510
140 6511
administrative 6512
limit 6513
mujtaba 6514
effects 6515
frenz 6516
44th 6517
zdf 6518
latest 6519
mats 6520
late 6521
promising 6522
guard 6523
toure 6524
giants 6525
mtk 6526
depart 6527
16-17 6528
liechenstein 6529
seeding 6530
aa- 6531
grabowski 6532
collapsed 6533
humanitarian 6534
watchdog 6535
quality 6536
drowned 6537
blow 6538
narrow 6539
bayerische 6540
del 6541
shi-ting 6542
postponed 6543
eugen 6544
stafford 6545
pro-baseball 6546
bread 6547
re-elected 6548
inez 6549
pmc-sierra 6551
addis 6550
queen 6552
manchester 6553
2nd 6554
unc 6555
replay 6556
3.34 6557
eps 6558
volkswagen 6559
brno 6560
ottey 6561
60,000 6562
4.32 6563
dakar 6564
morgan 6565
me 6566
nurse 6567
attending 6568
worry 6569
corser 6570
371 6571
steffen 6572
r 6573
362 6574
featherstone 6575
unexpectedly 6576
newsprint 6577
style 6578
catholic 6579
jakarta 6580
veracruz 6581
rad 6582
1.88 6583
partner 6584
bus 6585
correct 6586
hassan 6587
progress 6588
mid-september 6589
formation 6590
favourite 6591
minimum 6592
troop 6593
overnight 6594
loan 6595
parrots 6596
allowed 6597
293 6598
wickman 6599
night 6600
vavuniya 6601
lot 6602
michigan 6603
baird 6604
0.12 6605
casualties 6606
opportunities 6607
tired 6608
protection 6609
channel 6610
11.00 6611
hogs 6612
spare 6613
restitution 6614
frustrated 6615
mouly 6616
transactions 6617
diseases 6618
absolute 6619
commodity 6620
financed 6621
muhammad 6622
negotiated 6623
libyan 6624
steady 6625
plastic 6626
hunger 6627
147.786 6628
monday 6629
boosted 6630
scenes 6631
kabariti 6632
practices 6633
focused 6634
hartlepool 6635
pitesti 6636
bastia 6637
displaced 6638
.542 6639
steps 6640
awdankiewicz 6641
wien 6642
patriarch 6643
copy 6644
procure 6645
please 6646
prediction 6647
declares 6648
jaha 6649
seychelles 6650
solvent 6651
neagle 6652
promises 6653
portuguesa 6654
15 6655
fredericks 6656
exchanged 6657
hospitalized 6658
buyer 6659
march 6660
mgt 6661
capiot 6662
darren 6663
sweat 6664
whale 6665
answer 6666
coventry 6667
tabulate 6668
annum 6669
kankkunen 6670
october 6671
373-1800 6672
manual 6673
42nd 6674
colo 6675
brokerage 6676
profitable 6677
ball 6678
emilio 6679
bullet 6680
maria 6681
ctbt 6682
sets 6683
struver 6684
felix 6685
sox 6686
beijing 6687
drakes 6688
ajaccio 6689
ample 6690
frederick 6691
alexandroupolis 6692
282 6693
medvedev 6694
saint 6695
litigation 6696
perform 6697
friendship 6698
penultimate 6699
38 6700
9002 6701
linking 6702
tvm 6703
[UNK] 1
house 6704
virtual 6705
olofsson 6706
stuttgart 6707
time-trial 6708
dry 6709
9-7 6710
firm 6711
nz 6712
decided 6713
6-3 6714
father 6715
colombo 6716
honda 6717
sure 6718
delays 6719
boston 6720
vicario 6721
caracas 6722
calling 6723
offshore 6724
acc 6725
10.11 6726
disclosed 6727
1-64 6728
clinched 6729
mm 6730
deliveries 6731
conceded 6732
manuel 6733
2,383 6734
issuing 6735
denny 6736
crookes 6737
500cc 6738
badly 6739
zadar 6740
gagne 6741
show 6742
ludwig 6743
azad 6744
geelong 6745
details 6746
qualities 6747
option 6748
hooper 6749
sec 6750
kosgei 6751
monaco 6752
sion 6753
brann 6754
dyed 6755
designer 6756
gathering 6757
managers 6758
opposed 6759
praise 6760
wells 6761
winger 6762
upset 6763
namibian 6764
strategic 6765
enn 6766
battersby 6767
sulphur 6768
grech 6769
resumed 6770
gunpoint 6771
moslem 6772
red 6773
volkov 6774
camouflage 6775
jane 6776
fan 6777
buenos 6778
stevanin 6779
hebron 6780
independent 6781
wolf 6782
be 6783
cleveland 6784
record 6785
hinted 6786
tomas 6787
ddf 6788
furlongs 6789
kumble 6790
gilbertson 6791
desmond 6792
countries 6793
nationalists 6794
inquiry 6795
3w 6796
premium 6797
inquiries 6798
salou 6799
1st 6800
approaching 6801
refined 6802
injured 6803
blaze 6804
midday 6805
spirlea 6806
sao 6807
dollars 6808
neck 6809
161 6810
47th 6811
man-of-the-match 6812
report 6813
over 6814
sack 6815
hijackers 6816
four-game 6817
begins 6818
airports 6819
1:04.541 6820
pain 6821
given 6822
birth 6823
8.5 6824
matthews 6825
advise 6826
outdueled 6827
advances 6828
1997-98 6829
pitched 6830
502 6831
cardoso 6832
0.23 6833
7706 6834
ekeus 6835
five-run 6836
publication 6837
fleuchaus 6838
flee 6839
required 6840
appealed 6841
juventus 6842
addressed 6843
church 6844
pellets 6845
opposing 6846
basement 6847
blames 6848
torrential 6849
removed 6850
faber 6851
hill 6852
vs. 6853
obilic 6854
instructions 6855
ennea 6856
collingwood 6857
must 6858
peron 6859
schneiter 6860
15-9 6861
jordan 6862
osaka 6863
everything 6864
incident 6865
vacancy 6866
assessed 6867
food 6868
gearing 6869
passes 6870
greater 6871
broker 6872
facility 6873
gianluca 6874
wasim 6875
54th 6876
82nd 6877
crossed 6878
voronova 6879
ours 6880
markets 6881
coast 6882
nizhny 6883
zenit 6884
1998/99 6885
meet 6886
mustapha 6887
defense 6888
4-205 6889
800 6890
counterpart 6891
jeff 6892
freight 6893
730 6894
save 6895
ozers 6896
massachusetts 6897
anderson 6898
horizons 6899
quell 6900
nicky 6901
.532 6902
.411 6903
magdalena 6904
20. 6905
tunisian 6906
grossman 6907
debrecen 6908
lancer 6909
provisions 6910
god 6911
raided 6912
roman 6913
bakker 6914
devers 6915
goes 6916
jean-philippe 6917
frn 6918
hardware 6919
hurts 6920
n.j. 6921
schedule 6922
giving 6923
monte 6924
yigang 6925
5,400 6926
america 6927
108.9 6928
chart 6929
balkans 6930
alkhan-yurt 6931
participants 6932
krakow 6933
dean 6934
12.60 6935
often 6936
but 6937
petrimex 6938
mcnamara 6939
zhang 6940
4.54 6941
single 6942
towed 6943
76.6 6944
shabwa 6946
college 6945
muscular 6947
harris 6948
abroad 6949
at 6950
tiebreaker 6951
luxembourg 6952
period 6953
cagliari 6954
zemin 6955
under 6956
1974 6957
allegations 6958
indications 6959
harassed 6960
shouted 6961
vyacheslav 6962
wayne 6963
moeller 6964
verona 6965
ferencvaros 6966
franz 6967
airbus 6968
assured 6969
kroslak 6970
a310 6971
piotti 6972
newt 6973
ideas 6974
immigrants 6975
proleter 6976
everton 6977
ejup 6978
two 6979
designed 6980
7-73 6981
mechelen 6982
treated 6983
teak 6984
grace 6985
advocated 6986
september 6987
fatal 6988
flower 6989
undercover 6990
section 6991
still 6992
hearing 6993
4-6 6994
273 6995
grounds 6996
mohammed 6997
suspected 6998
chemical 6999
lecce 7000
beauty 7001
tranmere 7002
living 7003
guide 7004
pays 7005
canberra 7006
bombs 7007
hoddle 7008
vols 7009
grasshopper 7010
liege 7011
vinny 7012
chest 7013
576 7014
axworthy 7015
photograph 7016
reeve 7017
slovenia 7018
percentage 7019
komarica 7020
togliatti 7021
anderlecht 7022
0.94 7023
mcrae 7024
checked 7025
alliance 7026
0.15 7027
simon 7028
though 7029
tyrrell 7030
lodge 7031
441 7032
networks 7033
98 7034
alexandra 7035
die 7036
sluggish 7037
evidence 7038
somewhere 7039
labat 7040
korean 7041
participation 7042
knot 7043
escort 7044
podium 7045
waivers 7046
bengal 7047
vs 7048
balkan 7049
8.0 7050
nearby 7051
aircraft 7052
recalled 7053
involves 7054
450,000 7055
alami 7056
ipswich 7057
peasants 7058
msv 7059
good 7060
philippine 7061
aamir 7062
gingrich 7063
privalova 7064
smashed 7065
rail 7066
contributed 7067
financial 7068
k 7069
displayed 7070
transfer 7071
consumption 7072
siemerink 7073
82 7074
pleas 7075
polls 7076
monitor 7077
stations 7078
houteman 7079
surplus 7080
riyadh 7081
via 7082
insistence 7083
d. 7084
arminia 7085
22 7086
soil 7087
konan 7088
orlando 7089
1967 7090
ukrainian 7091
semifinals 7092
dm 7093
senegal 7094
industrial 7095
travel 7096
tsang 7097
8.32 7098
hog 7099
bans 7100
that 7101
distribution 7102
value 7103
woosnam 7104
film 7105
elected 7106
heirs 7107
stages 7108
someone 7109
suleyman 7110
fundamentalist 7111
cooperation 7112
allensbach 7113
cnb-120 7114
ka 7115
unspecified 7116
carrying 7117
jungle 7118
cimicchi 7119
11.61 7120
croat 7121
conviction 7122
abandoned 7123
0.20 7124
dependent 7125
upon 7126
influence 7127
function 7128
worries 7129
cathy 7130
fife 7131
vasas 7132
yassin 7133
5-5 7134
atlante 7135
skandalidis 7136
former 7137
5.1 7138
rest 7139
kawasaki 7140
harvested 7141
self-rule 7142
nor 7143
zagreb 7144
suzuki 7145
end 7146
submissions 7147
detention 7148
400 7149
pay 7150
csu 7151
127.3 7152
hurry 7153
ramallah 7154
city 7155
coetzee 7156
habibullah 7157
signing 7158
greens 7160
preliminary 7159
stake 7161
pohang 7162
70th 7163
walks 7164
flour 7165
farul 7166
grasshoppers 7167
satisfactory 7168
+0.1 7169
aid 7170
maronite 7171
gatwick 7172
roma 7173
melissa 7174
fertiliser 7175
fulfilled 7176
130 7177
scrapie 7178
shortly 7179
2151 7180
this 7181
robbery 7182
three-test 7183
100 7184
vale 7185
serie 7186
duesseldorf 7187
lagged 7188
herron 7189
widely 7190
dac 7191
am 7192
colon 7193
pinch-hitter 7194
51 7195
98.9 7196
municipality 7197
partial 7198
duisberg 7199
weight 7200
3-1/2 7201
batchelor 7202
capable 7203
stockholm 7204
department 7205
anxieties 7206
tracy 7207
loos 7208
bob 7209
torrence 7210
helsinki 7211
dangerous 7212
mood 7213
establish 7214
1.0 7215
help-wanted 7216
closely 7217
winding 7218
friedick 7219
eyles 7220
roads 7221
oct. 7222
amounted 7223
receiving 7224
burned 7225
favour 7226
pair 7227
twente 7228
pembroke 7229
staff 7230
11.3 7231
f.c. 7232
them 7233
host 7234
ups 7235
prairies 7236
points 7237
4.90 7238
democratic 7239
anger 7240
warning 7241
meantime 7242
minute 7243
comeback 7244
writing 7245
plenty 7246
opava 7247
ransom 7248
originally 7249
salisbury 7250
nervousness 7251
elaborate 7252
disappointed 7253
58 7254
melanie 7255
firestone 7256
estimates 7257
follow 7258
expos 7259
silvio 7260
haessler 7261
saudi 7262
raymond 7263
nicklas 7264
termed 7265
16.8 7266
americast 7267
why 7268
persuaded 7269
confronted 7270
ohio 7271
zaire 7272
bottle 7273
162-4 7274
deputy 7275
ploiesti 7276
lawsuit 7277
receding 7278
12-15 7279
engines 7280
object 7281
patrice 7282
guingamp 7283
bone 7284
12-year-old 7285
chile 7286
boeing 7287
structured 7288
cup 7289
refused 7290
university 7291
40,000 7292
helps 7293
farm 7294
jadeja 7295
plagued 7296
250 7297
sheds 7298
s. 7299
in-form 7300
ove 7301
enqvist 7302
telecommunications 7303
sorts 7304
-docstart- 7305
predominantly 7306
achieving 7307
bright 7308
evelyn 7309
unpaid 7310
fitzpatrick 7311
communism 7312
valletta 7313
lima 7314
wisconsin 7315
gavin 7316
doubled 7317
marco 7318
christophe 7319
52nd 7320
260 7321
lazar 7322
murders 7323
salah 7324
particularly 7325
bids 7326
stagnates 7327
21. 7328
concert 7329
send 7330
4.5 7331
room 7332
herman 7334
samuel 7333
patchy 7335
weapon 7336
25.00 7337
9373-1800 7338
three-man 7339
lead 7340
politicians 7341
wilderness 7342
demonstrations 7343
clyde 7344
handful 7345
der 7346
cold 7347
darlington 7348
2843 7349
arulanandam 7350
hours 7351
patriotic 7352
202 7353
flooding 7354
7-0 7355
thome 7356
certain 7357
helicopters 7358
0.08 7359
apparel 7360
whitehurst 7361
steadily 7362
refugee 7363
dominion 7364
impeachment 7365
placebo 7366
investing 7367
javier 7368
calif. 7369
la 7370
stance 7371
96/97 7372
csepel 7373
file 7374
teplice 7375
bragg 7376
alexei 7377
10,650,407 7378
jetsi 7379
will 7380
funding 7381
missiles 7382
bpd 7383
93 7384
paulo 7385
followers 7386
3.75 7387
remarks 7388
delighted 7389
models 7390
california 7391
stallone 7393
alkmaar 7392
62 7394
] 7395
1996-08-30 7396
1994 7397
investigations 7398
egyptair 7399
152 7400
raising 7401
takuma 7402
benefit 7403
grand 7404
gloomy 7405
cases 7406
remembering 7407
elements 7408
early 7409
morning 7410
neza 7411
joins 7412
haladas 7413
cinco 7414
elena 7415
saying 7416
risen 7417
bit 7418
javelin 7419
little 7420
performed 7421
tim 7422
centuries 7423
strait 7424
running 7425
339 7426
admira 7427
desperate 7428
viktor 7429
salomon 7430
eastern 7431
.450 7432
committed 7433
forsa 7434
clause 7435
stephane 7436
filed 7437
tatran 7438
valerio 7439
registrations 7440
pills 7441
wood 7442
sons 7443
detective 7444
feet 7445
8.9 7446
dunfermline 7447
nation 7448
11 7449
littered 7450
277 7451
dbrs 7452
frazier 7453
rebel 7454
subaru 7455
bradford 7456
turnover 7457
boraine 7458
sieg 7459
macedonia 7460
midwest 7461
19-year-old 7462
denial 7463
china 7464
associate 7465
luggage 7466
woolmer 7467
left-field 7468
1994-95 7469
landed 7470
ren 7472
exactly 7471
bags 7473
0.86 7474
jordi 7475
steven 7476
contained 7477
spa-francorchamps 7478
holes 7479
eritrean 7480
catches 7481
franny 7482
lawmakers 7483
messages 7484
gatting 7485
disagreed 7486
government 7487
eugene 7488
mouscron 7489
5-2 7490
sentenced 7491
extreme 7492
champions 7493
files 7494
continuing 7495
irvine 7496
94.26 7498
hingis 7497
295 7499
lord 7500
kdp 7501
council 7502
wrist 7503
evasion 7504
30 7505
homeland 7506
christchurch 7507
interim 7508
onda 7509
flight 7510
considered 7511
raged 7512
225-5 7513
soldiers 7514
1860 7515
do 7516
islands 7517
rainfall 7518
142 7519
transport 7520
helens 7521
hardline 7523
61-2 7522
society 7524
roosevelt 7525
slams 7526
policies 7527
daughter 7528
koech 7529
finding 7530
w-2 7531
finn 7532
wheaton 7533
involve 7534
voices 7535
apartheid-era 7536
3.70 7537
bills 7538
likhovtseva 7539
skies 7540
worse 7541
miami 7542
yogic 7543
puglisi 7544
entire 7545
7.5 7546
.538 7547
three-stroke 7548
kemp 7549
vitoria 7550
cardiff 7551
whether 7552
view 7553
gold 7554
nt 7555
throw 7556
185,000 7557
festival 7558
antonio 7559
dark 7560
cleric 7561
noon 7562
alvarado 7563
verdict 7564
rugby 7565
institutions 7566
immigration 7567
horrors 7568
cash 7569
hinckley 7570
definitive 7571
knu 7572
speculated 7573
welcomed 7574
pitches 7575
swept 7576
vaas 7577
chornomorets 7578
volendam 7579
pressed 7580
indian 7581
proud 7582
motorist 7583
gave 7584
kiely 7585
loses 7586
alistair 7587
reject 7588
0.10 7589
israel 7590
southern 7591
sense 7592
else 7593
hussein 7594
rep 7595
boycott 7596
everen 7597
+6 7598
chandra 7599
unconfirmed 7600
a1 7602
aarau 7601
usually 7603
energetic 7604
hriday 7605
martina 7606
operator 7607
buyers 7608
postpone 7609
independently 7610
catch 7611
matthias 7612
.481 7613
braves 7614
9-5 7615
three-year-old 7616
hairy 7617
russia 7618
campus 7619
overlooked 7620
action 7621
newly 7622
honved 7623
builders 7624
resigns 7625
adams 7626
owing 7627
protein 7628
shrub 7629
204 7630
confidential 7631
day-night 7632
pro 7633
kuchma 7634
testud 7635
calcutta 7636
alpha 7637
downgraded 7638
ivorian 7639
+358 7640
sniffer 7641
teresa 7642
8.30 7643
above 7644
cultural 7645
fractured 7646
tribal 7647
gurusinha 7648
territories 7649
frankie 7650
dynamics 7651
15-2 7652
woman 7653
facing 7654
affect 7655
mass 7656
sympathy 7657
one-week 7658
244 7659
backed 7660
bj 7661
lawyer 7662
08/28/96 7663
kigali 7664
party 7665
baseman 7666
clavet 7667
gaza 7668
nomura 7669
range 7670
express 7671
20.42 7672
defender 7673
radstrom 7674
decrees 7675
al 7676
seminar 7677
stronger 7678
feedlot 7679
conroy 7680
eksportfinans 7681
al-anwar 7682
fake 7683
vierklau 7684
merrill 7685
ousted 7686
terrorists 7687
forma 7688
crescent 7689
jean-paul 7690
athletics 7691
clubs 7692
tag 7693
kornblum 7694
ag 7695
542 7696
affected 7697
.467 7698
regulatory 7699
1985 7700
covering 7701
sparked 7703
203 7702
danish 7704
authorities 7705
visitor 7706
shelling 7707
healy 7708
measles 7709
chernomorets 7710
warmup 7711
who 7712
chesapeake 7713
rangers 7714
omitted 7715
dystrophin 7716
56 7717
wednesday 7718
42.0 7719
opportunity 7720
10. 7721
takeishi 7722
seasonal 7723
technologies 7724
epr 7725
mauritania 7726
destitute 7727
snapped 7728
41st 7729
lines 7730
africans 7731
fluctuations 7732
mounted 7733
couples 7734
citizens 7735
312-408-8720-- 7736
amsterdam 7737
kse 7738
fired 7739
colombian 7740
atlantic 7741
chonnam 7742
practice 7743
11.12 7744
tendulkar 7745
fear 7746
staged 7747
four-run 7748
$ 7749
petrzalka 7750
promodes 7751
lion 7752
reverts 7753
carlo 7754
opinion 7755
chance 7756
propaganda 7757
rupert 7758
13.0 7759
split 7760
entry 7761
andrei 7762
mice 7764
whittier 7763
migration 7765
use 7766
10-0-52-0 7767
determine 7768
reuter 7769
devoted 7770
harrison 7771
stranraer 7772
royals 7773
2470.00 7774
belim 7775
bell 7776
aged 7777
front 7778
50-75 7779
forehand 7780
gov't 7781
howell 7782
kerosene 7783
richard 7784
regained 7785
policeman 7786
lotte 7787
awarded 7788
ambitions 7789
enterprise 7790
approximately 7791
eat 7792
harvest 7793
andersson 7794
11.28 7795
kph 7796
fc 7797
bacteria 7798
lions 7799
infringement 7800
wheelchair 7801
ssangbangwool 7802
welcomes 7803
two-run 7804
's 7805
praised 7806
inflammation 7807
suburbs 7808
frost 7809
ahmed 7810
summer 7811
stick 7812
extremely 7813
decision 7814
worcestershire 7815
expired 7816
12. 7817
faure 7818
rivers 7819
ina 7820
kindercare 7821
accompany 7822
maleeva 7823
nevertheless 7824
jd 7825
gerhard 7826
5th 7827
hole 7828
vouch 7829
dewulf 7830
50.14 7831
slovakia 7832
miltiadis 7833
confederation 7834
69.5 7835
string 7836
perfect 7837
mouth 7838
117.00 7839
525 7840
745 7841
naberezhnye 7842
shattered 7844
maracaibo 7843
demel 7846
2091 7845
humphries 7847
endt 7848
diana 7849
beryllium 7850
brewers 7851
ww 7852
worst 7853
sept 7854
spared 7855
2.20 7856
members 7857
20s 7858
swift 7859
contest 7860
selectors 7861
marathon 7862
farming 7863
licensed 7864
remaining 7865
grateful 7866
by 7867
rafter 7868
pudvah 7869
firing 7870
lawyers 7871
dionne 7872
raced 7873
gdansk 7874
rkc 7875
bossi 7876
amid 7877
stabaek 7878
thunderstorms 7879
divorced 7880
mikael 7881
michele 7882
netanyahu 7883
olympiakos 7884
bases 7885
urged 7886
20.19 7887
harper-collins 7888
keith 7889
1021 7890
seen 7891
gronholm 7892
shimon 7893
klas 7894
mx 7895
interest 7896
180 7897
rizzitelli 7898
planned 7899
economy 7900
mid-1997 7901
0.8 7902
grozny 7903
purpose 7904
tm 7905
sharp 7906
irina 7907
restructure 7908
( 7909
rejected 7910
semiconductor 7911
max 7912
--- 7913
gunmen 7914
waste 7915
saqlain 7917
scale 7916
real 7918
amman 7919
spite 7920
incompetence 7921
u.s 7922
snapping 7923
prosecutor 7924
44.2 7925
security 7926
eased 7927
cubs 7928
awaiting 7929
301 7930
haven 7931
p 7932
endorsement 7933
productivity 7934
amy 7935
hashimoto 7936
chiefs 7937
six-month 7938
abandon 7939
economists 7940
slated 7941
slaughtered 7942
american-style 7943
distributing 7944
exer 7945
petersburg 7946
challenger 7947
1.8 7948
updated 7949
q1 7950
reformer 7951
salvation 7952
explained 7953
plans 7954
firearms 7955
announced 7956
triggered 7957
overrun 7958
0.300 7959
interbank 7960
investigate 7961
i 7962
halftime 7963
briefly 7964
falilat 7965
basque 7966
stark 7967
internacional 7968
queensland 7969
vicious 7970
limited 7971
gets 7972
batted 7973
disrupt 7974
dai 7975
further 7976
projected 7977
essential 7978
immune 7979
carried 7980
pushed 7981
8.02 7982
tops 7983
ensuring 7984
say 7985
m2 7986
tensions 7987
essendon 7988
passed 7989
totalled 7990
spaniard 7991
widow 7992
thomas 7993
tarango 7994
conchita 7995
basketball 7996
inches 7997
left-hander 7998
0.63 7999
minor 8000
eriksson 8001
includes 8002
stalled 8003
muller 8004
maarten 8005
denmark 8006
antwerp 8007
junior 8008
gray 8009
users 8010
rainier 8011
gunfire 8012
chernomyrdin 8013
mate 8014
bunds 8015
urgent 8016
forced 8017
6.96 8018
endorse 8019
sessions 8020
27 8021
1820 8022
maso 8023
sameh 8024
telephone 8025
nyva 8026
.462 8027
skirmish 8028
kg 8029
trillion 8030
largest 8031
mountain 8032
exposure 8033
merchant 8034
ministers 8035
makinen 8036
gross 8037
7- 8038
norris 8039
4-90 8040
.492 8041
insight 8042
parties 8043
begin 8044
andrew 8045
guarantee 8046
non-trade 8047
finland 8048
care 8049
dividend 8050
voiced 8051
concerned 8052
collapse 8053
between 8054
holdings 8055
abbott 8056
39.0 8057
district 8058
.500 8059
toshiba 8060
malakwen 8061
transmitted 8062
severely 8063
revised 8064
dominated 8065
convinced 8066
borrower 8067
6.3 8068
herbert 8069
tortelli 8070
joost 8071
observers 8072
shocking 8073
raoux 8074
release 8075
stop 8076
jewell 8077
reinsurance 8078
marcus 8079
gildea 8080
april 8081
kristina 8082
croft 8083
sanath 8084
subsidiaries 8085
produced 8086
undertaking 8087
under-21 8088
eletropaulo 8089
saudis 8090
7658 8091
goldman 8092
pressure 8093
gorre 8094
1980 8095
symonds 8096
lierse 8097
18th 8098
tonnage 8099
refuel 8100
dutch 8101
disciplinary 8102
mutola 8103
388 8104
won 8105
eliminating 8106
occur 8107
love 8108
pais 8109
eliminated 8110
deposed 8111
tons 8112
7,000 8113
ask 8114
brunswijk 8115
friend 8116
nantes 8117
gary 8118
taibe 8119
elderly 8120
marijuana 8121
haul 8122
islamist 8123
ryo 8124
xhelili 8125
bodo 8126
malawi 8127
stakes 8128
107.0 8129
reflects 8130
watch 8131
linked 8132
47 8133
global 8134
directly 8135
preparing 8136
settled 8137
238 8138
cords 8139
40-year-old 8140
movie 8141
al-watan 8142
strikes 8143
tender 8144
organise 8145
analysts 8146
u.s.-brokered 8147
ottoz 8148
disrupted 8149
romania 8150
kafelnikov 8151
assurance 8152
cantonal 8153
bulk 8154
tension 8155
bomb 8156
build 8157
d.c. 8158
piper 8159
frana 8160
shabana 8161
jiri 8162
illegal 8163
5,000 8164
freight-tonne 8165
brugge 8166
container 8167
501 8168
joel 8169
proj 8170
upstairs 8171
borussia 8172
automatically 8173
lillestrom 8174
pct 8175
classic 8176
yen 8177
14,775,000 8178
containing 8179
santa 8181
lance 8180
slater 8182
russian-chechen 8183
expense 8184
1992 8185
0.48 8186
russian 8187
three-game 8188
capitalisation 8189
tubes 8190
raids 8191
metals 8192
unnamed 8193
bowing 8194
boer 8195
praises 8196
diplomatic 8197
trades 8198
fueled 8199
10-8 8200
gunned 8201
kilometre 8202
joao 8203
revisions 8204
lahore 8205
singles 8206
27-5-78-2 8207
reimbursement 8208
co 8209
klerk 8210
emmanuel 8211
8-6 8212
puts 8213
czech 8214
21-year-old 8215
consultations 8216
police 8217
abbaye 8218
lubin 8219
filip 8220
explosives 8221
225 8224
banks 8222
karim 8223
related 8225
erdei 8226
wijffels 8227
sukarnoputri 8228
aberdeen 8229
uneven 8230
xinhua 8231
tower 8232
prinosil 8233
jesus 8234
pat 8235
millfeeds 8236
rapidly 8237
approval 8238
gang 8239
brighton 8240
command 8241
32.0 8242
magazine 8243
sq 8244
tel+44 8245
wally 8246
neighbour 8247
kidnapping 8249
nick 8248
prykarpattya 8250
serves 8251
ruch 8252
solitary 8253
marketing 8254
ranging 8255
illegally 8256
bombing 8257
petra 8258
repeatedly 8259
films 8260
coalition 8261
12th-ranked 8262
seasonally 8263
comics 8264
parramatta 8265
taken 8266
reprieve 8267
bratislava 8268
lyman 8269
gabon 8270
development 8271
leads 8272
painful 8273
tonga 8274
0.75 8275
resuming 8276
66th 8277
rbi 8278
scattered 8279
mir 8280
liberal 8281
innsbruck 8282
right-field 8283
transmitter 8284
rocky 8285
milan 8286
133 8287
rid 8288
gilardi 8290
hariri 8289
restrictions 8291
17th 8292
tibetan 8293
course 8294
t-bill 8295
porsche 8296
berger 8297
enderle 8298
borrego 8299
philadelphia 8300
republican 8301
46.4 8302
envoy 8303
vinnytsya 8304
kispest 8305
respectively 8306
examined 8307
lancashire 8308
steve 8309
274 8310
spreading 8311
feared 8312
s$ 8313
ieng 8314
ek 8315
cukaricki 8316
walker 8317
hiddink 8318
prayers 8319
small 8320
gogele 8321
.477 8322
sammer 8323
gorrochategui 8324
inmates 8325
deutsche 8326
exhausted 8327
renew 8328
resigned 8329
indra 8330
westhuizen 8331
fight 8332
princess 8333
3.3 8334
helping 8335
1-106 8336
prostitution 8337
reform 8338
agnieszka 8339
rather 8340
general 8341
zhilan 8342
edt 8343
4734 8344
eritrea 8345
these 8346
least 8347
baghdad 8348
brooks 8349
saeed 8350
superman 8351
quarterfinals 8352
trouble-free 8353
glasgow 8354
14 8355
boskalis 8356
ames 8357
guerrero 8358
where 8359
2:23 8360
100.6 8361
pirates 8362
18-man 8363
knows 8364
futures 8365
uk 8366
twist 8367
results 8368
submit 8369
stuart 8370
british-based 8371
clinch 8372
obtain 8373
neo-nazi 8374
constitutional 8375
lauderdale 8376
10.15 8377
wounded 8378
resident 8379
rabat 8380
loser 8381
thermal 8382
kay 8383
soared 8384
missed 8385
promptly 8386
1996-08-21 8387
el 8388
17.8 8389
klaus 8390
drive 8391
herald 8392
12.95 8393
1969 8394
5.5 8395
register 8396
61 8397
bergkamp 8398
stranksy 8399
rabobank 8400
17-14 8401
611 8402
1949 8403
traders 8404
judicial 8405
project 8407
calls 8406
lenzing 8408
riviera 8409
oksana 8410
muthiah 8411
435 8412
season 8413
mr. 8414
amanda 8415
commandos 8416
muratovic 8417
iowa 8418
strasbourg 8419
realised 8420
millions 8421
154 8422
49 8423
seeds 8424
last 8425
shipyard 8426
benfica 8427
garlic 8428
frentzen 8429
ostrava 8430
advance 8431
aggregate 8432
cluj 8433
sheffield 8434
supported 8435
jansher 8436
controversial 8437
partners 8438
6-1-17-0 8439
dohuk 8440
kikinda 8441
hina 8442
eldred 8443
cesena 8444
jyvasklya 8445
muralitharan 8446
castleford 8447
one-match 8448
batumi 8449
tunis 8450
republic 8451
ord 8452
sites 8453
29 8454
socialists 8455
oblige 8456
go-ahead 8457
spring 8458
southland 8459
sauber 8460
kruger 8461
pact 8462
spain 8463
court 8464
andrea 8465
schoolgirl 8466
dipped 8467
cpi 8468
sort 8469
promoted 8470
buzuku 8471
town 8472
da 8473
pedro 8474
politics 8475
century 8476
craig 8477
dakota 8478
disarmed 8479
computers 8480
look 8481
flamengo 8482
enough 8483
photographer 8484
ghent 8485
lebouc 8487
145 8486
cboe 8488
wed 8489
occupation 8490
round 8491
lombardi 8492
fine 8493
jailed 8494
iraq 8495
0.056 8496
chemlon 8497
bold 8498
revered 8499
mladost 8500
586 8501
fact-finding 8502
atlas 8503
versus 8504
eyewitnesses 8505
11.38 8506
boca 8507
pursuing 8508
warwickshire 8509
mullally 8510
9 8511
heerenveen 8512
2-6 8513
worked 8514
kalashnikov 8515
choice 8516
east 8517
underage 8518
electronics 8519
congo 8520
etruscan 8521
sustainable 8522
besides 8523
3.00 8524
clearing 8525
monitors 8526
would-be 8527
bernhard 8528
iceland 8529
2.3 8530
congressmen 8531
swap 8532
st. 8533
banking 8534
striking 8535
romano 8536
smiling 8537
achieve 8538
3432 8539
puebla 8540
francis 8541
killed 8542
500,000 8543
.470 8544
nb-3 8545
gurion 8546
well 8547
post 8548
karlsson 8549
multiple 8550
liechtenstein 8551
victims 8552
gazprom 8553
leicestershire 8554
pen 8555
lithuania 8556
goosen 8557
arum 8558
intentions 8559
indians 8560
3.25-3.75 8561
juventude 8562
7.2 8563
sewing 8564
johnny 8565
until 8566
dominant 8567
activity 8568
chiluba 8569
kashmir 8570
algeria 8571
discovered 8572
famous 8573
attempts 8574
bombarded 8575
coughlan 8576
deficit 8577
yourself 8578
original 8579
bacau 8580
dugmore 8581
wilson 8582
inflation 8583
prodi 8584
allenby 8585
priority 8586
chips 8587
year-ago 8588
plo 8589
xi 8590
metres 8591
disappearance 8592
install 8593
els 8594
later 8595
albert 8596
manufacturer 8597
graeme 8598
forwarded 8599
leader 8600
hockey 8601
purposes 8602
ludmila 8603
hidemichi 8604
expected 8605
stiff 8606
6.00 8607
3.40 8608
ruehe 8609
mccoist 8610
tree 8611
o'brien 8612
emanuele 8613
rashid 8614
paribas 8615
included 8616
perpetrators 8617
under-secretary 8618
having 8619
40.0 8620
33 8621
withdrew 8622
guerrilla 8623
crossing 8624
tilburg 8625
395 8626
northern 8627
is 8628
ara 8629
newark 8630
beyond 8631
lovebites 8632
5-248 8633
matsuoka 8634
year-end 8635
moreno 8636
attend 8637
katowice 8638
.575 8639
greg 8640
appoint 8641
325 8642
blank 8643
patricia 8644
questions 8645
1-10-100 8646
unita 8647
whole 8648
troubled 8649
edwards 8650
304 8651
paris 8652
mqm 8653
fewer 8654
lock 8655
attention 8656
quit 8657
commanding 8658
tabloid 8659
3-2 8660
40 8661
average 8662
approves 8663
employer 8664
210.00 8665
scholar 8666
zion 8667
b-1 8668
arose 8669
gmt 8670
tried 8671
surging 8672
des 8673
kadian 8674
hereford 8675
christian 8676
two-goal 8677
sacked 8678
disney 8679
lausberg 8680
flights 8681
matos 8682
candiotti 8683
shumer 8684
pacific 8685
economic 8686
421 8687
proved 8688
specific 8689
departure 8690
eight 8691
materials 8692
such 8693
cheung 8694
hope 8695
researchers 8696
establishment 8697
richardson 8698
minardi 8699
giant 8700
malivai 8701
motherwell 8702
fielder 8703
bromwich 8704
h2 8705
removal 8706
p.m. 8707
karachi 8708
reached 8709
guldimann 8710
hibernian 8711
reference 8712
alexandrou 8713
nine-month 8714
tiger 8715
backbone 8716
losses 8717
clydebank 8718
undersecretary-general 8719
21-day 8720
3.5 8721
nederland 8722
brechin 8723
a. 8724
weizman 8725
jerry 8726
belonging 8727
? 8728
1940 8729
5.2 8730
lennart 8732
unauthorised 8731
nabs 8733
draft 8734
doetinchem 8735
mushtaq 8736
hendrix 8737
two-out 8738
bernini 8739
roof 8740
maintenance 8741
nicole 8742
reporting 8743
secretary-general 8744
alba 8745
fax+44 8746
dallas 8747
stone 8748
tirol 8749
two-time 8750
servette 8751
officer 8752
figures 8753
six-year 8754
vice 8755
organisations 8756
reopening 8757
really 8758
intense 8759
esnaider 8760
starved 8761
ferguson 8762
troy 8763
problem 8764
rating 8765
secession 8766
.447 8767
less 8768
hwa 8769
warfare 8770
oakland 8771
107 8772
69 8773
doubling 8774
cushion 8775
wijaya 8776
inject 8777
arranged 8778
dn 8779
canizares 8780
eindhoven 8781
presidency 8782
parent 8783
norway 8784
author 8785
movies 8786
plymouth 8787
richmond 8788
withdrawal 8789
julia 8790
salahuddin 8791
organisation 8792
+11 8793
publisher 8794
dublin 8795
banco 8796
contacts 8797
takeover 8798
eighth-seeded 8799
televised 8800
she'an 8801
budejovice 8802
ivan 8803
.359 8804
responsibility 8805
hawthorn 8806
fairview 8807
committee 8808
subpoenas 8809
deadlocked 8810
mineiro 8811
caddick 8812
haas 8813
slow 8814
're 8815
t&n 8816
kept 8817
tribute 8818
transition 8819
projection 8820
meadows 8821
chiate 8822
olimpija 8823
25th 8824
7.89 8825
suitcases 8826
thierry 8827
obliged 8828
sloboda 8829
230 8830
ducruet 8831
spinal 8832
explain 8833
chaired 8834
149 8835
orderly 8837
dhaka 8836
frederic 8838
kneipp 8839
respect 8840
arrested 8841
escaped 8842
races 8843
same-day 8844
samson 8845
angel 8846
zardari 8847
topple 8848
300 8849
tightened 8850
imprisonment 8851
reflecting 8852
arequipa 8853
zastava 8854
j 8855
shanghai 8856
schein 8857
newcombe 8858
conferences 8859
constant 8860
569 8861
data 8862
2002 8863
chechens 8864
colchester 8865
35.0 8866
azul 8867
withdraw 8868
1642 8869
intended 8870
jaime 8871
oklahoma 8872
saint-germain 8873
kubo 8874
employees 8875
northeast 8876
watkinson 8877
svetlana 8878
nicosia 8879
liquids 8880
ringing 8881
1972 8882
1,800 8883
start 8884
delivery 8885
boxes 8886
zaporizhya 8887
eighth-inning 8888
stork 8889
defenders 8890
lb-4 8891
tansu 8892
hans 8893
informed 8894
epidemic 8895
according 8896
crs 8897
around 8898
takemura 8899
knee 8900
mines 8901
device 8902
signals 8903
reef 8904
slept 8905
extremist 8906
specified 8907
wickets 8908
637.50 8909
azharuddin 8910
bistrita 8911
sixth 8912
whatsoever 8913
reeling 8914
19th 8915
pt 8916
limits 8917
temperature 8918
s.african 8919
anza 8920
komala 8921
tour 8922
dax 8923
novotna 8924
.535 8925
largely 8926
pity 8927
palestinian 8928
ad-diyar 8929
laca 8930
measuring 8931
burnt 8932
2w 8933
8.2 8934
shortfall 8935
132 8936
let 8937
revealed 8938
ammunition 8939
lifting 8940
fact 8941
isolated 8942
rocca 8943
prichard 8944
approach 8945
extradition 8946
manhattan 8947
betaseron 8948
ezinwa 8949
opponent 8950
sheets 8951
arnaud 8952
decisive 8953
lelouche 8954
hunter 8955
education 8956
7,149 8957
kevorkian 8958
sandon 8959
wooden 8960
inventories 8961
nb-8 8962
per 8963
qualifier 8964
8.29 8965
0-1 8966
requirement 8967
11.8 8968
delegation 8969
1,600 8970
northfield 8971
georgia 8972
stationed 8973
4-3 8974
freeport 8975
contracts 8976
january-july 8977
caribs 8978
seoul 8979
walk 8980
aliuska 8981
318-2 8982
figure 8983
controlled 8984
hunt 8985
ciments 8986
and 8987
operations 8988
buffett 8989
border 8990
younger 8991
sbpus 8992
langrova 8993
seven-year 8994
pensions 8995
bruno 8996
platinum 8997
shotgun 8998
excited 8999
satisfied 9000
pioline 9001
3.98 9002
northcote 9003
lambert 9004
tottenham 9005
jars 9006
benes 9007
oak 9008
mixed 9009
raichev 9010
no-confidence 9011
9.12 9012
davis 9013
lift 9014
u.n. 9015
comfortable 9016
three-month 9017
geneva 9018
kidnap 9019
laboratories 9020
winning 9021
fidelis 9022
paola 9023
jongsma 9024
johan 9025
could 9026
assassination 9027
listing 9028
tournaments 9029
school 9030
arrived 9031
499 9032
launch 9033
knight 9034
olsza 9035
arjuna 9036
truce 9037
stalker 9038
mosier 9039
deserves 9040
carnival 9041
pilot 9042
ip 9043
bnz 9044
fleeing 9045
plains 9046
concealed 9047
benefits 9048
zilina 9049
fulham 9050
relieved 9051
conducted 9052
5,778.00 9053
reopened 9054
aiming 9055
39th 9056
auxerre 9057
airlines 9058
hamlet 9059
robbing 9060
zealands 9062
crazy 9061
bunol 9063
stoltenberg 9064
deported 9065
waldorf 9066
pardoned 9067
notably 9068
bahrain 9069
guivarch 9070
thanks 9071
cow 9072
thu 9073
basle 9074
complaint 9075
fifth-inning 9076
dharmasena 9077
labor 9078
servants 9079
landmark 9080
referee 9081
yasser 9082
7. 9083
71 9084
highly 9085
family 9086
1.09 9087
eefje 9088
version 9089
crewe 9090
trend 9091
ten 9092
guzman 9093
guilty 9094
pre-abnormals 9095
arson 9096
tommi 9097
promote 9098
harrington 9099
ca 9100
hearts 9101
33-26 9102
spread 9103
provided 9104
moved 9105
boys 9106
150,000 9107
situation 9108
regional 9109
palmans 9110
shrewsbury 9111
winnipeg 9112
947 9113
rupiah 9114
reserve 9115
collect 9116
compared 9117
fighter 9118
aol 9119
dier 9120
westner 9121
garang 9122
weathered 9123
close 9124
publicly 9125
commander 9126
corp. 9127
lack 9128
04 9129
monterrey 9130
predicted 9131
toyota 9132
naoko 9133
tychy 9134
ill 9135
primarily 9136
investigation 9137
lamented 9138
leicester 9139
rejection 9140
0.79 9141
drawn 9142
severe 9143
churches 9144
infrastructure 9145
cover 9146
deals 9147
waved 9148
consistent 9149
coordinator 9150
shkirko 9151
maintains 9152
pvt 9153
suffering 9154
ancient 9155
shoulder 9156
zvornik 9157
72 9158
maker 9159
owners 9160
rapist 9161
37. 9162
additional 9163
wellington 9164
= 9165
lira 9166
restored 9167
residence 9168
drives 9169
stirling 9170
there 9171
wounding 9172
+301 9173
experienced 9174
champion 9175
conditional 9176
confirms 9177
attempted 9178
standings 9179
praha 9180
pescara 9181
believed 9182
specialists 9183
1803 9184
reelection 9185
sutjeska 9186
israelis 9187
911 9188
disclosure 9189
people 9190
amica 9191
kock 9192
alive 9193
t. 9194
eamonn 9195
live 9196
yi 9197
scott 9198
coupon 9199
also 9200
nagyatad 9201
choose 9202
capture 9203
nagyova 9204
month 9205
saving 9206
jacob 9207
terrorist 9208
ilott 9209
ivory 9210
serbia 9211
paint 9212
blanco 9213
bundesliga 9214
fires 9215
widad 9216
arthritis 9217
pittsburgh 9218
cesar 9219
august 9220
seek 9221
nationalist 9222
faulding 9223
ec 9224
lent 9225
angola 9226
examination 9227
evacuated 9228
circuit 9229
tight 9230
reason 9231
ellwood 9232
crafar 9233
lopez 9234
peter 9235
vital 9236
jay 9237
roe 9238
sierd 9239
shayne 9240
bvsc 9241
winter 9242
principle 9243
write 9244
no.2 9245
sell 9246
dilution 9247
norman 9248
concern 9249
n't 9250
klimis 9251
systematically 9252
digest 9253
starts 9254
licences 9255
son 9256
foot 9257
division 9258
inzamam-ul-haq 9259
philippoussis 9260
rhythm 9261
locations 9262
should 9263
lorries 9264
avoided 9265
drink 9266
lawrie 9267
lokomotiva 9268
425 9270
kurdistan 9269
spoke 9271
78 9272
costis 9273
rottweiler 9274
multi-ethnic 9275
gajdos 9276
wash 9277
deter 9278
mexico 9279
dos 9280
closing 9281
nis 9282
trafford 9283
shut 9285
pick 9284
crash 9286
torquay 9287
kaucuk 9288
goydos 9289
torpedo 9290
precautions 9291
builds 9292
15,000 9293
humenne 9294
utomo 9295
fund 9296
resolving 9297
nacar 9298
friendly 9299
syria 9300
follow-through 9301
rudolf 9302
arrival 9303
shelbourne 9304
white 9305
trnava 9306
dayton 9307
maureen 9308
readily 9309
halted 9310
rishon 9311
stagecoach 9312
128 9313
week-long 9314
kekkila 9315
errors 9316
struggle 9317
galati 9318
deby 9319
all-rounder 9320
otelul 9321
penrose 9322
cry 9323
10.12 9324
phelps 9325
died 9326
korea 9327
constanta 9328
petrosani 9329
8520 9330
second-round 9331
cme 9332
political 9333
distance 9334
dimitrios 9335
listed 9336
+6221 9337
foreldorado 9338
racket 9339
relinquished 9340
superior 9341
rouble 9342
barge 9343
attended 9344
jacek 9345
11-6 9346
johannesburg 9347
title 9348
apologised 9349
onlookers 9350
131 9351
disarmament 9352
canadian 9353
coritiba 9354
corner 9355
11.16 9356
alongside 9357
six-hitter 9358
clinton 9359
hardship 9360
top-level 9361
discussed 9362
savicevic 9363
retiring 9364
178 9365
complaining 9366
highest 9367
38:34.682 9368
criticism 9369
stood 9370
bury 9371
rosado 9372
milwaukee 9373
simply 9374
lb 9375
3.92 9376
prompt 9377
below 9378
sittard 9379
yorkshire 9380
8th 9381
+3 9382
doubted 9383
lamy 9384
roca 9385
all 9386
swansea 9387
gap 9388
past 9389
lows 9390
difficulty 9391
liquidity 9392
shah 9393
941-8100 9394
student 9395
future 9396
1/3 9397
yayuk 9398
steaua 9399
telekom 9400
high-speed 9401
yoshikawa 9402
campbell 9403
nirmal 9404
245 9405
violation 9406
luton 9407
jersey 9408
sentiment 9409
spirits 9410
adon 9411
fleurian 9412
hlasek 9413
liberec 9414
met 9415
bayer 9416
rumours 9417
mariano 9418
hamburg 9419
rib 9420
administration 9421
1999 9422
hand 9423
mirhunisa 9424
mahala 9425
loud 9426
drought 9427
possibly 9428
fleming 9429
rated 9430
grammes 9431
fixed 9432
fred 9433
matt 9434
dhahran 9435
request 9436
link 9437
colleagues 9438
laasonen 9439
extra 9440
vairelles 9441
incumbent 9442
stephanie 9443
sauce 9444
qualifiers 9445
manager 9446
glad 9447
100,000 9448
annabel 9449
respirator 9450
941 9451
yedioth 9452
goalless 9453
add 9454
diego 9455
ajax 9456
recorded 9457
finish 9458
matters 9459
bat 9460
contribute 9461
95 9462
13-15 9463
want 9464
sandrine 9465
fast 9466
cancel 9467
obree 9468
gilbert 9469
mozambique 9470
heath 9471
accepted 9472
batons 9473
game 9474
relatively 9475
ballanger 9476
mo 9477
novgorod 9478
lech 9479
30.aug.96 9480
resalat 9481
143 9482
kabul 9483
mild-mannered 9484
exchanges 9485
jiul 9486
shall 9487
fontaine 9488
text 9489
computer 9490
democrat 9492
albania 9491
prefix 9493
coup 9494
0900 9495
defends 9496
although 9497
initiated 9498
third-round 9499
finalists 9500
unimported 9501
woodruff 9502
adrs 9503
revs 9504
generated 9505
317 9506
increasing 9507
tikhomirov 9508
titles 9509
smoke 9510
ondruska 9511
p. 9512
jean-pierre 9513
fdp 9514
stopping 9515
automation 9516
convention 9517
formal 9518
chi 9519
democrats 9520
yarn 9521
priced 9522
3311812-4 9523
premier 9524
n.a 9525
marty 9526
trouble 9527
div 9528
pneumonia 9529
baseline 9530
protocol 9531
coffee 9532
smirnov 9533
out 9534
covers 9535
parma 9536
caf 9537
quote 9538
together 9539
institute 9540
beat 9541
daschle 9542
re 9543
caused 9544
head 9545
dariusz 9546
woodforde 9547
ordering 9548
hintsa 9549
logging 9550
businessman 9551
lisbon 9552
hurled 9553
gaceta 9554
courtois 9555
lusaka 9556
interrogated 9557
eyebrows 9558
year-on-year 9559
bielefeld 9560
1-1 9561
daily 9562
blamed 9563
costain 9564
customs 9565
german 9566
eu 9567
elite 9568
peaceful 9569
asylum 9570
kryvbas 9571
negotiation 9572
notts 9573
suspect 9574
suits 9575
victory 9576
bruised 9577
tamils 9578
carlisle 9579
yamaha 9580
luc 9581
three-year 9582
waalwijk 9583
person 9584
hands 9585
565 9586
rights 9587
regulate 9588
integrated 9589
asked 9590
49.7 9591
microsoft 9592
kinross 9593
fail 9594
marks 9595
basis 9596
4.6 9597
postponement 9598
birds 9599
destroyed 9600
another 9601
infuriated 9602
varazdin 9603
full-year 9604
camp 9605
cofinec 9606
standards 9607
refining 9608
six-party 9609
pinas 9610
jan-april 9611
wholly-owned 9612
cart 9613
2183 9614
exclude 9615
55th 9616
genk 9617
libor 9618
auction 9619
sugiyama 9620
products 9621
accepting 9622
cnn 9623
crimes 9624
prerequisite 9625
al-kabariti 9626
draw 9627
advised 9628
falls 9629
529-8 9630
billions 9631
kidnappers 9632
replying 9633
stolen 9634
pakistani 9635
bench 9636
jornada 9637
aids 9638
lovell 9639
support 9640
pitting 9641
inspectors 9642
illinois 9643
212-859-1646 9644
workers 9645
involvement 9646
amtrak 9647
ranking 9648
exports 9649
28.98 9650
ham 9651
contributions 9652
sir 9653
notionally 9654
96 9655
formed 9656
important 9657
berwick 9658
+5 9659
pretoria 9660
cent 9661
fox 9662
azerbaijan 9663
madrid 9664
senegalese 9665
nac 9666
cuts 9667
handover 9668
rare 9669
laboratory 9670
buying 9671
settle 9672
viral 9673
byas 9674
jewelry 9675
roy 9676
- 9677
ldp 9678
lumpur 9679
sovetov 9680
streda 9681
33. 9682
pre-war 9683
centrist 9684
legislature 9685
jean-michel 9686
doctors 9687
heinz-harald 9688
ronaldo 9689
gabrich 9690
incidents 9691
iran 9692
philippines 9693
5-1 9694
candidate 9695
219 9696
a$ 9697
jacobs 9698
blame 9699
4-1 9700
shiraz 9701
struggled 9702
built 9703
raf 9704
sex 9705
draws 9706
nicaragua 9707
36-year-old 9708
muscle 9709
weeks 9710
vialle 9711
sheu 9712
23rd 9713
retief 9714
nida'a 9715
sun 9716
set 9717
albion 9718
davenport 9719
militants 9720
90 9721
internal 9722
dickson 9723
gazeta 9724
shining 9725
model 9726
mth 9727
aronkasei 9728
prairie 9729
stricker 9730
said 9731
deadly 9732
surprise 9733
1945 9734
sutton 9735
ended 9736
.461 9737
o'neill 9738
challenge 9739
flow 9740
plantation 9741
mobile 9742
rodriguez 9743
ones 9744
access 9745
papers 9746
zhemchuzhina 9747
despite 9748
0.50 9749
caribbean 9750
thuet 9752
0.40 9751
headingley 9753
operation 9754
unidentified 9755
growth 9756
chase 9757
bowel 9758
kim 9759
1915.00 9760
spots 9761
finley 9762
sponsors 9763
commissioner 9764
wicket 9765
'll 9766
strain 9767
missions 9768
proportion 9769
dally 9770
crew 9771
waters 9772
dacia 9773
states 9774
ken 9775
angered 9776
17.4 9779
kinkel 9777
wo 9778
karbovanets 9780
1981 9781
w145 9782
derby 9783
ago 9784
competition 9785
antoine 9786
cleaning 9787
vasco 9788
55,000-b 9789
commack 9790
jackie 9791
mets 9792
euro 9793
kijimuta 9794
exiled 9795
& 9796
otherwise 9797
coerced 9798
sc 9799
dubnicoff 9800
hundreds 9801
wataru 9802
insurance 9803
paulus 9804
51st 9805
persuade 9806
pointing 9807
levels 9808
y 9809
bovine 9810
advanced 9811
freestyle 9812
stefan 9813
minister 9814
leduc 9815
koepke 9816
after 9817
klongprem 9818
hardest 9819
lives 9820
matuzici 9821
204.74 9822
rider 9823
76th 9824
occupy 9825
proposal 9826
allowing 9827
find 9828
pistol 9832
moin 9829
widened 9830
lands 9831
outline 9833
426 9834
takes 9835
universe 9836
prime 9837
complained 9838
apparently 9839
konrad 9840
13-year-old 9841
orr 9842
cattle 9843
prefer 9844
sierra 9845
olazabal 9846
unsuccessful 9847
centre 9848
pitch 9849
feldhoff 9850
6.4 9851
rikl 9852
newbury 9853
batsman 9854
globo 9855
secured 9856
union 9857
rotherham 9858
placards 9859
tanzania 9860
13. 9861
silence 9862
raid 9863
earns 9864
group 9865
obstructing 9866
enquiries 9867
symptoms 9868
agricultural 9869
mt 9870
middlesex 9871
riel 9872
imed 9873
themselves 9874
conscious 9875
lamonts 9876
pinto 9877
kidney 9878
.504 9879
surrey 9880
cristina 9881
hernan 9882
q4 9883
pao 9884
gisenyi 9885
waiting 9886
2 9887
failing 9888
flows 9889
accountant 9890
graham 9891
zairean 9892
causes 9893
asleep 9894
building 9895
o'malley 9896
mountainous 9897
managed 9898
278 9899
old 9900
galina 9901
surged 9902
carl 9903
linz 9904
compares 9905
nymex 9906
king 9907
3rd 9908
quoted 9909
reward 9910
moslem-croat 9911
man 9912
then 9913
anatolian 9914
garhi 9915
durum 9916
vehicle 9917
600 9918
pereira 9919
professor 9920
.512 9921
tentative 9922
ferrying 9923
street 9924
nato 9925
resorts 9926
gks 9927
aides 9928
1-7 9929
lilly 9930
landing 9931
2385 9932
whom 9933
naphtha 9934
yingkou 9935
from 9936
supervise 9937
extended 9938
executed 9939
pure 9940
autumn 9941
nixon 9942
afghanistan 9943
stock 9944
mark 9945
gene 9946
1996-08-28 9947
rushed 9948
18. 9949
port 9950
huge 9951
kan 9952
role 9953
interview 9954
each 9955
3024.95 9956
sabine 9957
needed 9958
currently 9959
dozens 9960
ofk 9961
usda 9962
saline 9963
spending 9964
inc. 9965
unit 9966
psv 9967
serial 9968
appeals 9969
treasuries 9970
shacks 9971
notice 9972
savings 9973
crude 9974
593 9975
zubair 9976
rmt 9977
opened 9978
adelt 9979
resistance 9980
toughest 9981
completely 9982
above-average 9983
carling 9984
pits 9985
countryside 9986
5/8 9987
cheques 9988
sharjah 9989
10.6 9990
czk 9991
journey 9992
addressing 9993
preferred 9994
plight 9995
semi-final 9996
equalised 9997
chg 9998
spiritual 9999
markus 10000
event 10001
castilla 10002
news 10003
hanwha 10004
recall 10005
cac-40 10006
8.05 10007
mrs. 10008
7-15 10009
sentences 10010
top-ranked 10011
sigma 10012
27,246.5 10013
gb 10014
searches 10015
valerenga 10016
keep 10017
kragujevac 10018
erik 10019
katarina 10020
detroit 10021
donald 10022
m 10023
continues 10024
2158 10025
connection 10026
lawsuits 10027
bought 10028
12th 10029
previous 10030
sergio 10031
pakistan 10032
index 10033
waqar 10034
acreage 10035
jarmo 10036
voie 10037
submitted 10038
brentford 10039
ser 10040
sport 10041
kenya 10042
pires 10043
76 10044
pitcher 10045
cement 10046
career 10047
malaysian 10048
even 10049
leverkusen 10050
11-1 10051
round-trip 10052
bonus 10053
delivered 10054
warrington 10055
eva 10056
oxford 10057
guus 10058
embassy 10059
analysis 10060
playing 10061
incompetent 10062
island 10063
ilie 10064
4.75 10065
schultz-mccarthy 10066
targets 10067
siofok 10068
valid 10069
clashed 10070
across 10071
2.6 10072
order 10073
second-placed 10074
.598 10075
embattled 10076
stressed 10077
happen 10078
relatives 10079
interfax 10080
walkover 10081
botha 10082
discovery 10083
" 10084
issue 10085
drachma 10086
responded 10087
javasoft 10088
probable 10089
9.75 10090
midfielders 10091
khalfallah 10092
o-157 10093
row 10094
erupted 10095
tebbutt 10096
goossens 10097
negotiations 10098
slain 10099
mln 10100
wisla 10101
desire 10102
circumstances 10103
foindu 10104
430 10105
ruxandra 10106
pounds 10107
merchants 10108
dick 10109
montserrat 10110
pierre 10111
indies 10112
bill 10113
ansa 10114
pkk 10115
4.38 10116
alert 10117
222 10118
mubarak 10119
protect 10120
twins 10121
renk 10122
483 10123
registered 10124
hamstring 10125
bahamas 10126
rupees 10127
votes 10128
jon 10129
braga 10130
loans 10131
7-5 10132
hoping 10133
masood 10134
boutros-ghali 10135
olga 10136
slice 10137
preserved 10138
overs 10139
significant 10140
basic 10141
gov 10142
71-57 10143
imprisoned 10144
relationship 10145
anonymous 10146
tranches 10147
brothers 10148
dlrs 10149
84th 10150
14.12 10151
chechnya 10152
banespa 10154
cniec 10153
hurt 10155
owned 10156
circle 10157
mummification 10158
vmig-1 10159
guitar 10160
constructorul 10161
interested 10162
nepali 10163
3.412 10164
retail 10165
camps 10166
nv 10167
documents 10168
national 10169
actual 10170
times-stock 10171
review 10172
gallagher 10173
observation 10174
allocation 10175
3-0 10176
ignoring 10177
gloom 10178
avoid 10179
24-year-old 10180
appeal 10181
jonathan 10182
captivity 10183
11.4 10184
criminal 10185
6,500 10186
ballesteros 10187
milinko 10188
removing 10189
taka 10190
sorensen 10191
span 10192
gan 10193
propose 10194
ning 10195
java 10196
polonia 10197
spaniards 10198
populaire 10199
goal 10200
stepping 10201
kaliningrad 10202
nine 10203
arrangement 10204
younis 10205
helmer 10206
serious 10207
bloody 10208
2-5 10209
walton 10210
long-time 10211
gendarmerie 10212
broadcast 10213
compartment 10214
apartment 10215
engquist 10216
hatoyama 10217
prince 10218
admitted 10219
mcginley 10220
behaviour 10221
policy 10222
buys 10223
ctry 10224
any 10225
think 10226
twa 10227
operates 10228
ala 10229
poland 10230
hong 10231
true 10232
11.0 10233
ganguly 10234
memory 10235
take 10236
promoting 10237
winkler 10238
attacked 10239
pace 10240
ownership 10241
settlers 10242
berlex 10243
transferred 10244
blue 10245
burma 10246
fractionally 10247
water 10248
28.19 10249
fortuna 10250
409 10251
jason 10252
brawl 10253
5-4 10254
lingers 10255
8.09 10256
dragged 10257
back 10258
servant 10259
lien 10260
himself 10261
kohl 10262
.534 10263
banning 10264
coached 10265
bizarre 10266
unsecured 10267
weakness 10268
69th 10269
relations 10270
2130 10271
rubber 10272
able 10273
bolster 10274
giles 10275
hapoel 10276
70 10277
stockpile 10278
others 10279
cap 10280
neighbouring 10281
collstrop 10282
officers 10283
c. 10284
pageant 10285
criticising 10286
clemency 10288
rudi 10287
1.206 10289
effort 10290
mutual 10291
naina 10292
dieter 10293
divorce 10294
motocross 10295
johnstone 10296
bak 10297
greek 10298
partition 10299
ballybunion 10300
piece 10301
revolt 10302
culture 10303
mary 10304
assemblies 10305
viktoria 10306
flach 10307
francisco 10308
partially 10309
padraig 10310
kick 10311
rutter 10312
scare 10313
alleged 10314
re-election 10315
167 10316
if 10317
257 10318
second-quarter 10319
neil 10320
negative 10321
midweek 10322
apiece 10323
france 10324
bryant 10325
indonesia 10326
qualifying 10327
high-yielding 10328
essex 10329
determined 10330
bonded 10331
tied 10332
conglomerate 10333
lansana 10334
1968 10335
ruben 10336
vows 10337
meteorological 10338
went 10339
planning 10340
louis 10341
2.30 10342
4:19.699 10343
none 10344
headquarters 10345
226-5 10346
ingwe 10347
hoped 10348
tomatoes 10349
salary 10350
murray 10351
banisadr 10352
canada 10353
cruyff 10354
aug 10355
unaudited 10356
final 10357
politician 10358
indicators 10359
op 10360
volgograd 10361
leon 10362
christopher 10363
code 10364
6,000 10365
material 10366
bohemians 10367
managing 10370
married 10368
failed 10369
goncharova 10371
ktm 10372
substances 10373
barges 10374
era 10375
hectare 10376
arendt 10377
wales 10378
rusty 10379
turns 10380
previously 10381
defence 10382
videos 10383
seems 10384
32-year-old 10385
unlike 10386
deflt 10387
spinoff 10388
2:29.34 10389
rush 10390
bay 10391
statements 10392
lugano 10393
lambrecks 10394
rings 10395
blackpool 10396
ripken 10397
guys 10398
exception 10399
patients 10400
substantial 10401
robert 10402
treasury 10403
22nd 10404
howard 10405
tapie 10406
stability 10407
unease 10408
scorer 10409
linzer 10410
atlanta 10411
minneapolis 10412
payable 10413
corn 10414
farmers 10415
winners 10416
sergi 10417
annett 10418
momentum 10419
akbel 10420
speculation 10421
pesetas 10422
rene 10423
namibia 10424
without 10425
b. 10426
boogert 10427
ireland 10428
nancy 10429
jan 10430
tanjug 10431
thursday 10432
videoton 10433
klinsmann 10434
believe 10435
. 10436
supporter 10437
f.a. 10438
int 10439
helmut 10440
feyenoord 10441
racist 10442
banska 10443
drnovice 10444
nl 10445
david 10446
upcoming 10447
welcome 10448
route 10449
1.5 10450
stansted 10451
islamists 10452
belarus 10453
placing 10454
saw 10455
making 10456
export 10457
macedonian 10458
collided 10459
earthquake 10460
been 10461
driver 10462
neiwand 10463
threw 10464
information 10465
64 10466
8.67 10467
odra 10468
12,750-12,900 10469
sungard 10470
second-longest 10471
alleyne 10472
shown 10473
halifax 10474
operated 10475
232 10476
101 10477
valuing 10478
observe 10479
known 10480
prevent 10481
demands 10482
jerusalem 10483
surgery 10484
tommy 10485
guns 10486
avaz 10487
37th 10488
cowdenbeath 10489
lewis 10490
thin 10491
fought 10492
drilled 10493
combat 10494
900.00 10495
prisons 10496
moldova 10497
bangkok 10498
conakry 10499
numbers 10500
brenda 10501
autobiography 10502
mantilla 10503
forints 10504
findings 10505
gravelaine 10506
located 10507
developing 10508
fined 10509
rwanda 10510
volumes 10511
tirana 10512
mobutu 10513
brandi 10514
monica 10515
him 10516
lindsay 10517
speak 10518
steffi 10519
38:32.149 10520
redgrave 10521
crisis 10522
affairs 10523
29th 10524
inter-ethnic 10525
statement 10526
bedie 10527
major 10528
jeremy 10529
gane 10530
unfortunate 10531
flashpoint 10532
bardejov 10533
timisoara 10534
mapei 10535
its 10536
plot 10537
eelam 10538
proceeding 10539
doorn 10540
chicago 10541
physical 10542
heels 10543
.... 10544
grande 10545
rallies 10546
valued 10547
formula 10548
punr 10549
wounds 10550
gillingham 10551
writers 10552
1980s 10553
quick 10554
fernando 10555
agree 10556
incomplete 10557
continental 10558
rafael 10559
8-9 10560
hydroelectric 10561
greece 10562
smuggle 10563
agenda 10564
earning 10565
alfred 10566
yankees 10567
injuries 10568
callens 10569
acct 10570
leander 10571
networking 10572
hk$ 10573
hillary 10574
labour 10575
petroleum 10576
earth 10577
leonard 10578
pumped 10579
mulder 10580
1381 10581
ottawa 10582
9,800 10583
rebuilding 10584
ipo 10585
breaker 10586
freezer 10587
shqiptare 10588
mental 10589
analyst 10590
kill 10591
sides 10592
handed 10593
faded 10594
conte 10595
aide 10596
convergence 10597
claim 10598
yorker 10599
overhaul 10600
312-408-8787 10601
garcia 10602
which 10603
effigy 10604
shutout 10605
raphael 10606
ceiling 10607
118 10608
.516 10609
900 10610
imposed 10611
public 10612
moving 10613
spoiling 10614
kivu 10615
info 10616
eco-terrorism 10617
gough 10618
hit 10619
kentucky 10620
wars 10621
powerful 10622
dismissal 10623
treaty 10624
paydate 10625
kuala 10626
victories 10627
settlements 10628
benchmark 10629
guarani 10630
slightly 10631
fiery 10632
11th 10633
morris 10634
pole 10635
406 10636
barcelona 10637
essilor 10638
------------------------ 10639
flew 10640
river 10641
cigarettes 10642
cambridge 10643
pierina 10644
venezuelan 10645
sidor 10646
marble 10647
luo 10648
overran 10649
infighting 10650
ecomog 10651
founding 10652
abstentions 10653
minerals 10654
variable 10655
strongly 10656
447 10657
definitely 10658
oust 10659
duffield 10660
challenged 10661
thefts 10662
) 10663
sobota 10664
regime 10665
plays 10666
perfectly 10667
contact 10668
allies 10669
possession 10670
highlighted 10671
350 10672
miriam 10673
bolger 10674
packaging 10675
standing 10676
born 10677
nice 10678
.423 10679
14.4 10680
delhi 10681
j. 10682
five-year-old 10683
ifk 10684
10-day 10685
diamond 10686
links 10687
the 10688
lakes 10689
airdrieonians 10690
jones 10691
breaking 10692
ferry 10693
greatest 10694
discrimination 10695
illingworth 10696
forfeited 10697
960.00 10698
ankle 10699
germain 10700
softer 10701
traditional 10702
lokeren 10703
kosovo 10704
malaysia 10705
karin 10706
covered 10707
wanted 10708
comparative 10709
rolls 10710
guards 10711
dow 10712
peterborough 10713
phelan 10714
field 10715
organised 10716
talabani 10717
grew 10718
248 10719
rivals 10720
begum 10721
tells 10722
10-3 10723
kilmarnock 10724
hull 10725
markvart 10726
consultancy 10727
12.77 10728
caps 10729
drinks 10730
erratically 10731
league 10732
drinkers 10733
sending 10734
unite 10735
in 10736
briefing 10737
grouping 10738
abidjan 10739
net 10740
vacation 10741
4:13.353 10742
protests 10743
error 10744
mainland 10746
bochum 10745
hour 10747
sohail 10748
intervention 10749
accidental 10750
yielded 10751
may 10752
told 10753
mexican 10754
attempting 10755
dried 10756
15.125 10757
evacuate 10758
enhance 10759
taleban 10760
chelsea 10761
land 10762
visit 10763
meetings 10764
tvx 10765
5452 10766
patrolled 10767
bucaram 10768
rubin 10769
srinath 10770
unemployed 10771
franklin 10772
irani 10773
referring 10774
shrs 10775
unam 10776
banharn 10777
1.9 10778
greer 10779
luanda 10780
barros 10781
profits 10782
chain 10783
seats 10784
first-place 10785
elimination 10786
398 10787
diluted 10788
jerome 10789
ingrid 10790
fulton 10791
parallel 10792
blair 10793
332.66 10794
3/4 10795
westwood 10796
pavin 10797
tauziat 10798
dresden 10799
16,000 10800
firmer 10801
pending 10802
loss 10803
26 10804
5-3 10805
* 10806
abuse 10807
radical 10808
brad 10809
judgment 10810
122 10811
comments 10812
175 10813
accounted 10814
yastrzhembsky 10815
wsrl 10816
pre-election 10817
finals 10818
2.4 10819
devereaux 10820
feature 10821
broad 10822
michael 10823
middlesbrough 10824
black 10825
offices 10826
paramount 10827
architect 10828
machinery 10829
brief 10830
seeded 10831
williams 10832
sukova 10833
square 10834
kimberly 10835
flavin 10836
flat 10837
trainer 10838
san 10839
consent 10840
runner-up 10841
interior 10842
.531 10843
decades 10844
psg 10845
videotape 10846
sugo 10847
sar 10848
cremonese 10849
opening 10850
ballot 10851
soymeal 10852
imphold 10853
0.85 10854
zvereva 10855
arable 10856
starvation 10857
perspective 10858
tactics 10859
rich 10860
done 10861
friday 10862
your 10863
same 10864
ordered 10865
criticized 10866
importance 10867
yr-ago 10868
.537 10869
province 10870
coppinger 10871
leg 10872
flared 10873
georgiopoulos 10874
morocco 10875
stankowski 10876
tue 10877
820 10878
critic 10879
128-4 10880
growing 10881
barrichello 10882
kucera 10883
long 10884
solution 10885
natural 10886
photographers 10887
worldwide 10888
nationals 10889
confiscated 10890
gain 10891
lose 10892
mccarron 10893
creditors 10894
northampton 10895
suitable 10896
dundee 10897
veterinary 10898
hotel 10899
retailer 10900
things 10901
carl-uwe 10902
no 10903
7-2 10904
210 10905
concessions 10906
38th 10907
clean 10908
actively 10909
sealed 10910
dalglish 10911
+1 10912
fears 10913
keeps 10914
test 10915
na 10916
roest 10917
tutsi 10918
119 10919
europe 10920
conditions 10921
circles 10922
peacefully 10923
anne 10924
1970s 10925
a-rated 10926
residents 10927
lady 10928
duffy 10929
brazilian 10930
14.8 10931
studies 10932
ronan 10933
lap 10934
310 10935
speaking 10936
nationality 10937
fightback 10938
12,700-12,800 10939
convincing 10940
nd 10941
larger 10942
anyang 10943
moslems 10944
trulsen 10945
5.06 10946
maybe 10947
joint 10948
chechen 10949
tabarez 10950
.539 10951
rimavska 2
