[UNK] 1
skylight 2
rhonda 3
il 4
underground 5
canal 6
november 7
cia 8
backup 9
caught 10
stress 11
methods 12
obsessed 13
fountain 14
package 15
eighteen 16
[ 17
kumaratunga's 18
farce 19
kadhim 20
silk 21
communist 22
simulation 23
gay 24
pot 25
replacement 26
a 27
advice 28
stories 29
coal 30
remedies 31
particular 32
selection 33
e-mails 34
steve's 35
folded 36
exile 37
fishing 38
feb. 39
ndi 40
functionality 41
answers 42
sitara 43
suggestion 44
interviews 45
mach 46
hissing 47
trusted 48
trios 49
rob 50
killers 51
judges 52
spoon 53
harbor 54
oslo 55
persian 56
fungus 57
nasim 58
1997 59
karol 60
official 61
main 62
every 63
agency 64
hyatt 65
sexual 66
@ 67
team 68
articulating 69
attacks 70
martin 71
aeron 72
crab 73
downhill 74
detect 75
tourists 76
term 77
lesson 78
collateral 79
seemed 80
suit 81
options 82
fees 83
investigating 84
cars 85
yep 86
beast 87
11.5 88
linda 89
rot 90
st 91
maximum 92
humming 93
friends 94
acted 95
ridiculous 96
bank 97
atta 98
discover 99
tupperwear 100
raised 101
impact 102
expert 103
forces 104
didn't 105
agreement 106
i'm 107
rural 108
concerning 109
chatting 110
garden 111
corporation 112
tent 113
ranchers 114
currency 115
furnishings 116
dozen 117
annual 118
guilds 119
complete 120
into 121
curb 122
memories 123
sculpture 124
empty 125
j.doc 126
todd 127
force 128
boss 129
cutting 130
visits 131
smell 132
beardies 133
requirements 134
florence 135
varanasi 136
shed 137
43 138
jumps 139
passion 140
math 141
xmas 142
sydney 143
resolution 144
everett 145
puppy 146
stage 147
shindand 148
governments 149
near 150
mechanic 151
short 152
studied 153
got 154
investors 155
rick 156
di 157
detail 158
ramtanu 159
goldmann 160
better 161
surface 162
reach 163
puerto 164
comfortably 165
sudan 166
entree 167
seldom 168
resume 169
seated 170
ocean 171
jorge 172
call 173
charles 174
constantly 175
caucasians 176
marcelo 177
roadhouse 178
713-853-3989 179
london 180
granted 181
stephen 182
sanctions 183
stretch 184
youre 185
vendors 186
fashion 187
assessment 188
aunt 189
surge 190
kansas 191
described 192
rendered 193
32 194
pool 195
im 196
indicating 197
microscopic 198
sanctuary 199
discouraging 200
trusty 201
insecure 202
comment 203
bedding 204
1530 205
nelson 206
innkeeper 207
1982 208
caring 209
theme 210
finalize 211
jaffna 212
become 213
frighten 214
smirk 215
workshops 216
daughters 217
posting 218
bella 219
greeting 220
laws 221
dined 222
loved 223
created 224
timing 225
retake 226
regulation 227
chumley 228
protested 229
elk 230
bar 231
supreme 232
nile 233
pinky 234
purchasing 235
treatment 236
skull 237
kindness 238
youth 239
unitary 240
mysterious 241
courteous 242
crawford 243
mid 244
pa 245
rice 246
identified 247
fully 248
1983 249
shit 250
databases 251
promotional 252
itself 253
big 254
pre-meeting 255
arts 256
experts 257
summary 258
newspaper 259
weekly 260
sutcliffe 261
forthcoming 262
tell 263
wall 264
welcoming 265
experience 266
laugh 267
depot 268
detected 269
03:58 270
greeted 271
heavily 272
hickory 273
survived 274
utilities 275
track 276
meant 277
questar 278
dont 279
retrieve 280
seem 281
onto 282
680 283
stand 284
excellent 285
reviewers 286
visitors 287
floating 288
arms 289
escape 290
applies 291
station 292
jeans 293
biological 294
tug 295
crowded 296
programme 297
endangered 298
setback 299
picket 300
beschta 301
chair 302
cursor 303
leaders 304
females 305
can't 306
bridge 307
80 308
arriving 309
resort 310
testify 311
gore 312
dennis 313
nye 314
frequent 315
corporate 316
operative 317
pulled 318
duration 319
wobblers 320
posted 321
talked 322
optimization 323
wildwood 324
pushing 325
lucy 326
poisoning 327
thy 328
blount 329
cherokee 330
took 331
dresses 332
telephony 333
1560 334
hero 335
partnership 336
tournament 337
appropriating 338
sender 339
bp 340
air 341
budget 342
10 343
sandwiches 344
signature 345
applications 346
cited 347
ds 348
capital 349
vietnam 350
howrah 351
tongues 352
episode 353
waitress 354
wire 355
own 356
********** 357
saratoga 358
easiest 359
weekend 360
60's 361
routine 362
participant 363
goods 364
entertainment 365
economics 366
ve 367
chaos 368
technically 369
argue 370
share 371
maitra 372
migrants 373
fabulous 374
store 375
orders 376
winton 377
hasn't 378
misunderstanding 379
conscience 380
damp 381
rudely 382
preferably 383
therapy 384
kyle.jones@radianz.com 385
audio 386
symbolizes 387
survivors 388
texas 389
lasted 390
when 391
eta_revision0307.doc 392
secretaries 393
decrease 394
tame 395
bart 396
yanhee 397
receiver 398
60 399
appointments 400
destiny 401
agreeing 402
miles 403
discussions 404
<< 405
cargo 406
invention 407
few 408
mainly 409
numerous 410
burner 411
coach 412
contents 413
today's 414
band 415
smithjones@ev1.net 416
philosophy 417
lennon 418
notebook.url 419
admissions 420
partly 421
voted 422
implementation 423
backside 424
discharge 425
returned 426
sports 427
joystick 428
20 429
listen 430
welch 431
games 432
various 433
occasions 434
contracted 435
practicing 436
necessary 437
england 438
greenhouse 439
3,500 440
pleasure 441
regardless 442
ercot 443
gem 444
suggests 445
educated 446
ltte 447
penalty 448
golden 449
01/12/2001 450
resolved 451
bike 452
antibiotics 453
tori 454
campaign 455
meeting 456
customers 457
bladder 458
a.k.a 459
struck 460
b 461
edwin 462
walmart 463
professional 464
:) 465
lithograph 466
brian 467
arising 468
motor 469
spectacular 470
capsules 471
wildernest 472
ai 473
amrullah 474
provinces 475
our 476
surprised 477
far 478
instructed 479
bakery 480
herself 481
filmed 482
imaginary 483
seller 484
minimizing 485
reading 486
serving 487
duct 488
rude 489
seo 490
holidays 491
gallon 492
kidding 493
brazil 494
audience 495
drinking 496
scoop 497
satan 498
% 499
presents 500
score 501
reply 502
multi-national 503
price 504
posada's 505
sheet 506
research 507
instigated 508
direct 509
justifying 510
liked 511
blog 512
andre 513
yheggy 514
ambitious 515
founded 516
undertake 517
days 518
compare 519
debaathification 520
russians 521
instability 522
communications 523
mare 524
refrigerator 525
positive 526
grease 527
marly 528
immunity 529
produces 530
copyright 531
: 532
christians 533
-2-f.doc 534
202.456.2461 535
carnegie 536
bottom 537
puct 538
unhappy 539
attorneys 540
risks 541
increasingly 542
nigel 543
rat 544
humans 545
fixtures 546
additionally 547
accord 548
parakeets 549
intellectuals 550
crashes 551
gives 552
lean 553
nasa 554
witnesses 555
imagined 556
subway 557
plain 558
advises 559
monkey 560
husbands 561
bottles 562
virtually 563
obligation 564
friendliness 565
aspect 566
us 567
warrant 568
investigators 569
lover 570
claimed 571
locked 572
evaluate 573
wyndham 574
palm 575
message 576
tampa 577
so 578
accomplishment 579
investment 580
charges 581
justin 582
3 583
olds 584
fallujah 585
commands 586
against 587
method 588
fins 589
rivalry 590
beverage 591
nowadays 592
they'd 593
hub 594
willow 595
idea 596
rockin 597
usage 598
happiness 599
stated 600
scheduling 601
warwick 602
targeted 603
t 604
treat 605
installed 606
visiting 607
appeared 608
yahoo! 609
van 610
temp 611
barrel 612
strongest 613
m.d. 614
generals 615
poison 616
mounting 617
icing 618
doors 619
enovate 620
mcginnis 621
breath 622
play 623
muni 624
violence 625
01/26/2001 626
12:30 627
voicemail 628
????? 629
calm 630
labels 631
jointly 632
trick 633
accidentally 634
warlord 635
suicide 636
service 637
etc 638
image 639
posada 640
voice 641
active 642
fran 643
brigades 644
restaurant 645
manually 646
liberation 647
americans 648
tablets 649
bagels 650
officially 651
magnificent 652
blooded 653
bare 654
radio 655
heart 656
quotes 657
21st 658
environmental 659
inch 660
accept 661
process 662
appearance 663
clan 664
an 665
circularisation 666
modus 667
shia 668
nov 669
area 670
… 671
faith 672
offered 673
tina 674
upi's 675
frightening 676
c 677
pages 678
anyone 679
murdered 680
processing 681
with 682
loi 683
underwear 684
collected 685
journal 686
matter 687
cells 688
looked 689
strength 690
babies 691
educational 692
death 693
compliments 694
haha 695
electronically 696
territorial 697
comparison 698
ya 699
ranges 700
sunburn 701
berlin 702
current 703
distinguish 704
mature 705
sheep 706
baluchistan 707
online 708
o 709
conflicting 710
push 711
detailed 712
sap 713
carlos 714
lowest 715
05/17/99 716
accumulated 717
ignorance 718
sentence 719
lope 720
for 721
inform 722
dryer 723
lt. 724
vajpayee 725
1993 726
healthy 727
drew 728
useful 729
46 730
nikon 731
pepper 732
ena 733
northwest 734
more 735
india's 736
sweet 737
grandson 738
paralegal 739
joining 740
blowing 741
+++++ 742
mabruk 743
weak 744
changed 745
tire 746
sicilian 747
eei 748
accent 749
guaranty 750
suspicion 751
riding 752
openings 753
ass 754
smokers 755
wanting 756
know 757
tall 758
fedayeen 759
becoming 760
ms. 761
.................... 762
worker 763
slowest 764
speaks 765
throat 766
presently 767
handle 768
martyrs 769
modeling 770
ate 771
noise 772
travelling 773
betta 774
messenger 775
document 776
guild 777
murphy 778
fluids 779
enthusiastic 780
104 781
tasteless 782
arrange 783
leading 784
turbine 785
confusion 786
cows 787
trading 788
artillery 789
forest 790
shipping 791
block 792
16 793
planet 794
lieutenant 795
bradley 796
parisian 797
locks 798
sharon's 799
individual 800
rachel 801
sit 802
npr 803
brain 804
media 805
speaker 806
represents 807
dunn's 808
mount 809
courtney 810
overcome 811
visas 812
level 813
pleased 814
paper 815
understood 816
incorporates 817
engage 818
.? 819
always 820
yearly 821
qualifications 822
focusing 823
fbi's 824
unprecedented 825
35 826
jobs 827
sink 828
turned 829
top 830
cast 831
hurricane 832
vial 833
offended 834
!!!!! 835
musicians 836
commission 837
70s 838
resource 839
authorized 840
wider 841
employee 842
warming 843
cole 844
120 845
leash 846
dehydrated 847
u.s. 848
guantanamo 849
dubai 850
funny 851
counterparty's 852
similar 853
creativity 854
dual 855
debtors 856
helped 857
rates 858
vigorously 859
boulder 860
min 861
maintaining 862
probing 863
balances 864
racing 865
newspapers 866
defended 867
potato 868
firms 869
day 870
----------------------------------------------------------------------- 871
rosalee 872
representative 873
wax 874
hcc 875
mississippi 876
laid 877
how's 878
responsibilities 879
baltimore 880
chnages 881
warpspeed 882
bent 883
pie 884
lane 885
poster 886
kingston 887
testified 888
wholly 889
hundred 890
showroom 891
07/17/2000 892
ummmm 893
.. 894
obligated 895
ak47s 896
cinema 897
waiter 898
ticket 899
fuck 900
steel 901
ma 902
cosmic 903
civilian 904
parisians 905
logo 906
held 907
latter 908
landlord 909
directed 910
lopez's 911
however 912
medal 913
barren 914
capacity 915
changes 916
times 917
storing 918
pursue 919
fall 920
directive 921
chores 922
girlfriend 923
minus 924
boyfriend 925
upheaval 926
pro-india 927
developed 928
causing 929
kennedy 930
payers 931
mind 932
meal 933
edmund 934
sake 935
tactical 936
united 937
' 938
sarah 939
amerithrax 940
budgie 941
cluster 942
freedom 943
sump 944
gel 945
corey 946
pervaiz 947
powder 948
kaoshikii 949
nervous 950
porch 951
opposite 952
question 953
my 954
visible 955
leaks 956
disenfranchised 957
absorption 958
preserve 959
trails 960
compel 961
ability 962
smutney 963
initially 964
promised 965
emerging 966
bjs 967
commitment 968
player 969
uncommon 970
pre-owned 971
forecasts 972
buy 973
damaging 974
okinawa 975
felt 976
limerick 977
ur 978
succeeded 979
you 980
fax 981
winner 982
proponents 983
oregon 984
child 985
judge 986
barno 987
sufficiently 988
m.nordstrom@pecorp.com 989
probably 990
mornings 991
tikrit 992
county 993
pyramid 994
recognized 995
carefully 996
go 997
u$ 998
lined 999
traditionally 1000
egg 1001
fire 1002
characters 1003
jewish 1004
flood 1005
screen 1006
sony 1007
separate 1008
mosque 1009
beak 1010
easter 1011
brandee 1012
jar 1013
freighter 1014
vulnerability 1015
strobe 1016
extracurricular 1017
theirs 1018
irish 1019
differences 1020
eating 1021
spanish 1022
5000 1023
toronto 1024
approached 1025
reuters 1026
warmly 1027
procedures 1028
bowtie 1029
relying 1030
taurus 1031
coogan 1032
war 1033
recommendation 1034
utterly 1035
delta 1036
fresh 1037
ole 1038
condemn 1039
playstation 1040
bioweaponeer 1041
ballerina 1042
giraffe 1043
as400 1044
history 1045
shirt 1046
janell 1047
cell 1048
hormuz 1049
vegan 1050
updates 1051
doubts 1052
dissolved 1053
misfortune 1054
customize 1055
shine 1056
picketing 1057
steam 1058
sancho 1059
,? 1060
continue 1061
understanding 1062
tires 1063
metal 1064
| 1065
obtained 1066
filter 1067
part 1068
sommer 1069
giovannini 1070
888.916.7184 1071
prevented 1072
24 1073
rollbacks 1074
cartoon 1075
communities 1076
inside 1077
threshold 1078
probability 1079
legal 1080
paid 1081
purchase 1082
1990 1083
reserves 1084
or 1085
named 1086
center 1087
wed. 1088
walls 1089
mutually 1090
southeast 1091
pants 1092
bunch 1093
hmmmmmm 1094
starters 1095
sitting 1096
improved 1097
accounting 1098
venezuela 1099
taliban 1100
concrete 1101
alerted 1102
different 1103
planes 1104
pre-killed 1105
fundamental 1106
horse's 1107
rules 1108
involving 1109
l. 1110
nomination 1111
bronze 1112
suspension 1113
heat 1114
trust 1115
16.379 1116
manifest 1117
replace 1118
stripes 1119
pledged 1120
prohibited 1121
series 1122
sheikh 1123
bands 1124
omnibus 1125
warm 1126
duck 1127
headed 1128
wing 1129
just 1130
karl 1131
dirty 1132
germany 1133
abomination 1134
grabbed 1135
provides 1136
diplomacy 1137
species 1138
rays 1139
involved 1140
this's 1141
shares 1142
neat 1143
we'd 1144
anbar 1145
speed 1146
thats 1147
avenue 1148
regards 1149
copies 1150
shanna 1151
clashes 1152
terrorism 1153
her 1154
ominous 1155
administrator 1156
spotted 1157
protestants 1158
fault 1159
ministry 1160
habitat 1161
1-800-991-9019 1162
fed 1163
constitute 1164
expand 1165
asia 1166
gallup 1167
googled 1168
salsa 1169
aftershocks 1170
consensus 1171
gullible 1172
satisfaction 1173
double 1174
southwest 1175
espeak 1176
aries 1177
belongs 1178
influential 1179
incorporated 1180
acceptance 1181
explaining 1182
nail 1183
daniels 1184
revenue 1185
shows 1186
bashers 1187
leadership 1188
73 1189
revalue 1190
soper 1191
wonderful 1192
concept 1193
factory 1194
storm 1195
lease 1196
busy 1197
moral 1198
rigged 1199
freeman 1200
class 1201
muster 1202
miniature 1203
flavor 1204
balls 1205
toward 1206
dominos 1207
dsl 1208
internet 1209
intermediary 1210
thing 1211
shift 1212
sole 1213
pge 1214
fridays 1215
hissed 1216
kenneth 1217
happening 1218
chapel 1219
hussein's 1220
doyon 1221
burgers 1222
juggernaut 1223
plant 1224
came 1225
forever 1226
pisces 1227
terry 1228
noel 1229
platform 1230
unacceptable 1231
convicted 1232
45 1233
dreamed 1234
stadium 1235
oh 1236
taking 1237
concerns 1238
intends 1239
worth 1240
chickens 1241
strike 1242
returns 1243
50 1244
sha'lan 1245
ny 1246
shared 1247
primary 1248
glandular 1249
getting 1250
tv 1251
yrs 1252
securities 1253
libya 1254
log 1255
hot 1256
arrive 1257
third 1258
earthworms 1259
issues 1260
pictures 1261
labs 1262
01 1263
linens 1264
liberty 1265
asset 1266
maryam 1267
decisions 1268
shocked 1269
throughout 1270
heard 1271
next 1272
scared 1273
watt 1274
performing 1275
injury 1276
challenges 1277
automatic 1278
operating 1279
delay 1280
definately 1281
three 1282
shoot 1283
cox 1284
context 1285
tribe 1286
interviewed 1287
apart 1288
09:14 1289
intercepted 1290
liverpool 1291
soldier 1292
wearing 1293
newsweek 1294
measure 1295
212 1296
cdg 1297
touch 1298
tracked 1299
students 1300
romanick 1301
pasture 1302
~ 1303
18 1304
arabia 1305
pull 1306
prominent 1307
lbs 1308
10,000 1309
york 1310
moore 1311
reportedly 1312
demonstrated 1313
proposing 1314
sees 1315
pocket 1316
iron 1317
pc 1318
proposes 1319
colorful 1320
attached 1321
cuban 1322
comprehensive 1323
since 1324
violent 1325
centres 1326
breeze 1327
adn 1328
dysfunctional 1329
boards 1330
amount 1331
names 1332
admin 1333
accuses 1334
reflect 1335
doug 1336
acupuncture 1337
organization 1338
needs 1339
modem 1340
dedicated 1341
sacramento 1342
sincerely 1343
crate 1344
core 1345
marquez 1346
picked 1347
award 1348
crest 1349
415 1350
volume 1351
stranger 1352
adapted 1353
typically 1354
notify 1355
04/16/2001 1356
low 1357
pricing 1358
peeing 1359
sleep 1360
falling 1361
genitals 1362
refunds 1363
dove 1364
personality 1365
leigh 1366
hiss 1367
resulting 1368
usd 1369
chose 1370
spore 1371
existing 1372
colorado 1373
heightened 1374
along 1375
..... 1376
** 1377
silver 1378
have 1379
karzai 1380
julie 1381
stressful 1382
factions 1383
execution 1384
proclaimed 1385
trial 1386
categorically 1387
butterfly 1388
sahaf 1389
impress 1390
renewed 1391
explore 1392
grinder 1393
million 1394
quoting 1395
sector 1396
parkway 1397
warner 1398
revision 1399
frank 1400
mercury 1401
ar 1402
strzalka 1403
surgeon 1404
jump 1405
cabinet 1406
yesterday 1407
join 1408
‘ 1409
florida 1410
venture 1411
mile 1412
'd 1413
dealing 1414
candidates 1415
forward 1416
omar 1417
bush 1418
shelters 1419
source 1420
scotland 1421
usmani 1422
stony 1423
ingrown 1424
chlorination 1425
covert 1426
jail 1427
decide 1428
burden 1429
militant 1430
receive 1431
!!!!!!! 1432
yr 1433
tuesday 1434
region 1435
door 1436
devon 1437
dining 1438
talk 1439
shops 1440
market 1441
boring 1442
marked 1443
non-human 1444
raw 1445
update 1446
generation 1447
jaws 1448
sinks 1449
tumor 1450
sect 1451
wedding 1452
sample 1453
tricky 1454
refer 1455
served 1456
than 1457
pasted 1458
bulletin 1459
ye 1460
vegetable 1461
translate 1462
professionally 1463
priest 1464
interests 1465
federation 1466
banned 1467
murfreesboro 1468
radicals 1469
tossed 1470
electronic 1471
1971 1472
entourage 1473
i/c 1474
reptiles 1475
trip 1476
move 1477
israeli 1478
visualizations 1479
thank 1480
runs 1481
asian 1482
time 1483
bedlam 1484
shawna 1485
cuisine 1486
broke 1487
1995 1488
invoices 1489
network 1490
cass 1491
tonight 1492
controlling 1493
penines 1494
civilians 1495
payment 1496
uni 1497
blown 1498
wings 1499
surrender 1500
commitments 1501
palace 1502
diapers 1503
reports 1504
clerk 1505
preorder 1506
vcu 1507
pregnant 1508
guinea 1509
85 1510
oasis 1511
ideal 1512
neighbors 1513
normal 1514
break 1515
emergency 1516
experiences 1517
ltd. 1518
establishing 1519
subsequent 1520
ranked 1521
adults 1522
run 1523
kueck 1524
everyone 1525
theater 1526
george's 1527
muslim 1528
shot 1529
concluding 1530
steffes 1531
scrub 1532
nobel 1533
conversations 1534
medication 1535
travellers 1536
manne 1537
credit's 1538
understandable 1539
sights 1540
consistency 1541
technique 1542
salt 1543
20,000 1544
permit 1545
reliable 1546
participating 1547
publications 1548
prepared 1549
partnerships 1550
hide 1551
luck 1552
dirt 1553
thirty 1554
aquarium 1555
llc 1556
ramadi 1557
wolf's 1558
teeth 1559
nonbondad 1560
2008 1561
presentation 1562
communists 1563
functions 1564
breyer 1565
gulf 1566
sudden 1567
custom 1568
enable 1569
struggling 1570
....... 1571
crayola 1572
4 1573
shee 1574
west 1575
surgeons 1576
halliburton 1577
forecast 1578
completed 1579
toe 1580
who's 1581
bang 1582
audiotape 1583
omg 1584
shots 1585
turn 1586
upscale 1587
fit 1588
28 1589
threat 1590
sensitive 1591
supervisor 1592
you're 1593
input 1594
arrangements 1595
unfair 1596
lights 1597
compete 1598
superb 1599
availability 1600
overcharges 1601
lists 1602
25 1603
accomodating 1604
here 1605
safety 1606
percell, 1607
hezbollah 1608
spray 1609
bojinka 1610
wtc 1611
local 1612
7th 1613
streams 1614
separately 1615
trees 1616
interceptor 1617
hose 1618
avoiding 1619
becomes 1620
he 1621
sussex 1622
repairs 1623
loop 1624
spent 1625
step 1626
clothing 1627
rides 1628
download 1629
flds 1630
opposition 1631
gym 1632
insult 1633
overbearing 1634
hostile 1635
worthy 1636
zinc 1637
self 1638
response 1639
boat 1640
job 1641
storage 1642
reccommend 1643
replied 1644
04:03 1645
disappeared 1646
submits 1647
carol 1648
huber 1649
roll 1650
attempt 1651
feeds 1652
percell 1653
verifies 1654
does 1655
fisheries 1656
grill 1657
obvious 1658
edit 1659
aa 1660
gop 1661
lately 1662
03 1663
amusement 1664
practical 1665
trips 1666
dates 1667
blount's 1668
story 1669
hypocrisy 1670
book 1671
syrian 1672
wont 1673
units 1674
shade 1675
boulevard 1676
types 1677
pioneers 1678
nigeria 1679
nicer 1680
terror 1681
autos 1682
occasion 1683
cater 1684
talks 1685
governor 1686
chill 1687
ihop 1688
popup 1689
deeply 1690
satanic 1691
oct 1692
park 1693
collection 1694
aka 1695
gone 1696
5 1697
posed 1698
fort 1699
submarines 1700
adds 1701
iraqis 1702
allawi 1703
rear 1704
discussing 1705
fundamentalists 1706
murder 1707
guaranteed 1708
angry 1709
middle 1710
unexpected 1711
killing 1712
it’s 1713
narrowed 1714
***** 1715
lee 1716
relation 1717
recieve 1718
bite 1719
departments 1720
tests 1721
declarations 1722
ciac 1723
notes 1724
require 1725
behalf 1726
comedians 1727
gracious 1728
guidance 1729
iran's 1730
seat 1731
759933 1732
difference 1733
delete 1734
seleznov 1735
huskers 1736
phuket 1737
tool 1738
pray 1739
reviewing 1740
rats 1741
participate 1742
panel 1743
including 1744
schools 1745
receipt 1746
direction 1747
alto 1748
baked 1749
window 1750
usual 1751
paraded 1752
printed 1753
crop 1754
traffic 1755
w 1756
predators 1757
wazed 1758
reopen 1759
amusing 1760
mild 1761
suggestions 1762
hospital 1763
recruiting 1764
enjoyment 1765
reintroduction 1766
discuss 1767
wrapping 1768
grain 1769
launchers 1770
effected 1771
exceptional 1772
connected 1773
shrimp 1774
senior 1775
nichols 1776
tavern 1777
try 1778
product 1779
language 1780
07/14/2000 1781
ignore 1782
successful 1783
failure 1784
photographs 1785
adnan 1786
transwestern 1787
commanders 1788
hesitate 1789
citizenship 1790
epa 1791
jean 1792
interface 1793
captain 1794
lens 1795
rahman 1796
capabilities 1797
asap 1798
healthcare 1799
hint 1800
bowl 1801
5/18 1802
valley 1803
gaining 1804
key 1805
reaching 1806
substantially 1807
frequency 1808
older 1809
objects 1810
holds 1811
trustee 1812
hiding 1813
63 1814
evil 1815
session 1816
perhaps 1817
pipe 1818
uss 1819
wonder 1820
village 1821
supplier 1822
crackdown 1823
moments 1824
castling 1825
identifies 1826
how 1827
says 1828
tactic 1829
respond 1830
definition 1831
led 1832
110 1833
feedback 1834
eerie 1835
par 1836
sleeping 1837
snakes 1838
disasters 1839
decor 1840
guerra 1841
office 1842
compensation 1843
degree 1844
flown 1845
asking 1846
sunday 1847
apple 1848
forgot 1849
supply 1850
03/21/2001 1851
theatre 1852
worried 1853
southwestern 1854
earlier 1855
responding 1856
fix 1857
electoral 1858
effeminate 1859
affecting 1860
senator 1861
doesn't 1862
people's 1863
faster 1864
balasingham 1865
unknown 1866
extensive 1867
credit 1868
scent 1869
african 1870
brave 1871
russell 1872
ecs 1873
elder 1874
way 1875
adopt 1876
tollis 1877
looming 1878
contrast 1879
placed 1880
becuse 1881
attitude 1882
persons 1883
their 1884
absolutely 1885
pour 1886
eventually 1887
kerry's 1888
dies 1889
butcher 1890
rose 1891
notified 1892
sought 1893
rio 1894
assistant 1895
proxy 1896
ambulances 1897
annex 1898
holga 1899
nails 1900
much 1901
significantly 1902
directions 1903
effect 1904
warranty 1905
beautiful 1906
khan 1907
tricks 1908
personal 1909
origins 1910
laptops 1911
working 1912
table 1913
evaluations 1914
formidable 1915
ever 1916
mike 1917
develop 1918
payments 1919
equipment 1920
hatred 1921
parenteau 1922
shipment 1923
machine 1924
authority 1925
propane 1926
kitchen 1927
amazes 1928
41 1929
year's 1930
paying 1931
kline 1932
signs 1933
4th 1934
member 1935
tds 1936
aortic 1937
sold 1938
engineer 1939
act 1940
ba'athist 1941
forms 1942
pakistanis 1943
secondly 1944
weather 1945
co-workers 1946
colin 1947
dykman 1948
recommendations 1949
def 1950
liberals 1951
appreciate 1952
aboard 1953
easy 1954
confidence 1955
leite 1956
goals 1957
business 1958
unless 1959
awards 1960
intelligence 1961
seattle 1962
arm 1963
understand 1964
scammer 1965
here's 1966
postal 1967
fare 1968
competing 1969
woud 1970
joseph 1971
racism 1972
that’s 1973
correlation 1974
enjoyable 1975
wolak 1976
left 1977
repeated 1978
tourism 1979
that'll 1980
hell 1981
thus 1982
bagh 1983
billion 1984
aftermath 1985
lube 1986
ps4 1987
collective 1988
addition 1989
tasty 1990
girl's 1991
james 1992
53 1993
confirm 1994
evident 1995
shiites 1996
fbi 1997
jamaica 1998
confident 1999
stairs 2000
reimbursable 2001
transmission 2002
system 2003
bible 2004
deer 2005
ga 2006
client 2007
ekrapels@esaibos.com 2008
supports 2009
rapid 2010
gentle 2011
body 2012
copying 2013
international 2014
followed 2015
philip 2016
goodness 2017
expressed 2018
un 2019
appy 2020
thanx 2021
positions 2022
hired 2023
anyone's 2024
images 2025
increases 2026
lottery 2027
adsl 2028
noted 2029
10:30 2030
longest 2031
cannot 2032
recent 2033
6.1 2034
jerk 2035
allegedly 2036
soda 2037
sends 2038
refuses 2039
serve 2040
bites 2041
profit 2042
chasing 2043
blackline 2044
deadline 2045
heading 2046
invoicing 2047
within 2048
exploit 2049
bondad 2050
tanker 2051
programs 2052
transportation 2053
roofing 2054
peninsula 2055
elsewhere 2056
loose 2057
415.621.8317 2058
lucky 2059
gained 2060
solve 2061
immediate 2062
postcards 2063
passport 2064
altogether 2065
fifteen 2066
11/28/2000 2067
club 2068
calculation 2069
recovering 2070
pork 2071
anthony 2072
dirtier 2073
thai 2074
point 2075
comprised 2076
housing 2077
ernie 2078
jim 2079
roughly 2080
fluid 2081
ally 2082
state 2083
fair 2084
increased 2085
norwegian 2086
alaska 2087
defensive 2088
rub 2089
acting 2090
heads 2091
snack 2092
european 2093
11:30 2094
american 2095
hung 2096
sms 2097
welfare 2098
dictatorship 2099
1987 2100
tasting 2101
sciri 2102
consequences 2103
target 2104
healthier 2105
representatives 2106
measures 2107
rooms 2108
dissemination 2109
heater 2110
cooked 2111
flowing 2112
trickle 2113
pattern 2114
resolutions 2115
secretive 2116
custody 2117
nitrogen 2118
president 2119
travels 2120
sue 2121
radiation 2122
didnt 2123
slang 2124
trying 2125
margaret 2126
implement 2127
islami 2128
overcooked 2129
empowerment 2130
endanger 2131
_______ 2132
choices 2133
permission 2134
we 2135
reduced 2136
politely 2137
festivals 2138
attn. 2139
dept 2140
islamic 2141
spend 2142
phase 2143
apprehensive 2144
attachment 2145
tend 2146
aviation 2147
hire 2148
phd 2149
nie 2150
broken 2151
streak 2152
brings 2153
greetings 2154
dioxide 2155
egypt 2156
horror 2157
grave 2158
maintained 2159
proposed 2160
efficiency 2161
youtube 2162
83n 2163
lone 2164
hold 2165
debate 2166
tours 2167
rumors 2168
m. 2169
selections 2170
gearbox 2171
consistently 2172
agel 2173
1691 2174
150 2175
websites 2176
cm 2177
academic 2178
quantity 2179
yet 2180
allocated 2181
french 2182
mid-july 2183
beutel 2184
adding 2185
place 2186
explains 2187
e-mailed 2188
hosanna 2189
deed 2190
bound 2191
expect 2192
bears 2193
refusing 2194
blower 2195
feathers 2196
alot 2197
everywhere 2198
favor 2199
drawers 2200
those 2201
clue 2202
bangs 2203
budgies 2204
hysterical 2205
houston 2206
announcement 2207
italy 2208
fri 2209
cracked 2210
advertised 2211
launched 2212
flooded 2213
affair 2214
ebay 2215
checks 2216
xiii 2217
quiet 2218
regarding 2219
customer 2220
surgical 2221
bodies 2222
regrettable 2223
chittagong 2224
thoughts 2225
provincial 2226
1973 2227
terrell 2228
world's 2229
arco 2230
kicked 2231
allawi's 2232
teams 2233
achieved 2234
normally 2235
2001 2236
feels 2237
johnson 2238
fabric 2239
free 2240
december 2241
paragraph 2242
smaller 2243
13th 2244
aerocom 2245
trot 2246
busybodies 2247
lie 2248
civilized 2249
declared 2250
booking 2251
fish 2252
strategy 2253
tropical 2254
happened 2255
zawahiri 2256
rate 2257
281-443-3744 2258
barrels 2259
lake 2260
possessed 2261
asansol 2262
portions 2263
unbelievable 2264
` 2265
needles 2266
deal 2267
britain 2268
skilled 2269
indication 2270
hints 2271
eol 2272
californians 2273
# 2274
associated 2275
challenging 2276
sectarian 2277
name 2278
kittens 2279
timetable 2280
elegant 2281
lonely 2282
authorization 2283
la. 2284
reporters 2285
dresser 2286
compensate 2287
luv 2288
doctor's 2289
attorney 2290
curious 2291
recreating 2292
beef 2293
yours 2294
appears 2295
arvn 2296
slide 2297
disperse 2298
they're 2299
glass 2300
vets 2301
parish 2302
janice 2303
non-commercial 2304
already 2305
nightlife 2306
cause 2307
problems 2308
regret 2309
acceptable 2310
debbie 2311
dating 2312
resources 2313
ultimate 2314
center's 2315
seas 2316
flesh 2317
like 2318
workforce 2319
predict 2320
respects 2321
seven 2322
amazed 2323
disappear 2324
curves 2325
hop 2326
mailed 2327
voting 2328
singapore 2329
complicated 2330
jennifer 2331
50,000 2332
pakistan's 2333
argument 2334
heavy 2335
change 2336
open 2337
upgrade 2338
undermining 2339
breast 2340
79 2341
everybody 2342
clayton 2343
ld2d-#69377-1.xls 2344
plunge 2345
dad 2346
you'll 2347
lounge 2348
chess 2349
09/15/99 2350
gw 2351
rumsfeld 2352
insulting 2353
captured 2354
number 2355
energy 2356
hungry 2357
rescue 2358
pike 2359
thailand 2360
reduction 2361
animals 2362
popped 2363
pop 2364
doing 2365
technology 2366
accompanied 2367
effective 2368
law 2369
alright 2370
cease 2371
khalid 2372
rise 2373
wants 2374
i'd 2375
paradise 2376
girls 2377
rent 2378
print 2379
ncrc4me 2380
pairs 2381
295870 2382
among 2383
state's 2384
crucial 2385
william 2386
comes 2387
faction 2388
advertising 2389
0 2390
website 2391
whim 2392
soul 2393
dreams 2394
patrick 2395
safe 2396
recessive 2397
emerged 2398
based 2399
bother 2400
insurgency 2401
sum 2402
crust 2403
path 2404
feb 2405
kevalam 2406
engineers 2407
fri. 2408
learning 2409
contractor 2410
stay 2411
lessons 2412
spill 2413
b2b 2414
chromatograph 2415
tiffany 2416
sister 2417
accused 2418
seriously 2419
preseason 2420
kent 2421
2007 2422
barn 2423
maine 2424
board 2425
ideology 2426
remains 2427
medical 2428
sounds 2429
sashimi 2430
pup 2431
intention 2432
crack 2433
sharing 2434
need 2435
migrant 2436
affects 2437
hardliners 2438
as 2439
using 2440
ray 2441
evening 2442
faithful 2443
moreover 2444
porte 2445
estimated 2446
testing 2447
37 2448
coordination 2449
revived 2450
wave 2451
ground 2452
murderers 2453
entity 2454
tear 2455
secretary 2456
base 2457
345-9945 2458
alan 2459
tow 2460
health 2461
foreigner 2462
strengthened 2463
clear 2464
socal 2465
amendment 2466
pig 2467
type 2468
aggressive 2469
kingel 2470
cone 2471
surrounds 2472
01:39:56 2473
understands 2474
ucan 2475
begun 2476
arabic 2477
backing 2478
hindu 2479
considering 2480
phenomenon 2481
implemented 2482
five 2483
void 2484
crushed 2485
engaged 2486
representing 2487
99 2488
jerks 2489
sight 2490
viable 2491
clark 2492
starting 2493
trailer 2494
advisor 2495
girl 2496
apartments 2497
rarely 2498
distances 2499
lived 2500
anwar 2501
sampler 2502
edge 2503
arakan 2504
wrote 2505
wrap 2506
advancement 2507
eye 2508
implications 2509
inversion 2510
tenn 2511
anything 2512
vote 2513
1590's 2514
make 2515
picky 2516
search 2517
counterparties 2518
ecology 2519
fascinating 2520
contribution 2521
address 2522
prioritised 2523
df 2524
sale 2525
community 2526
detained 2527
several 2528
surveillance 2529
fulfilling 2530
.! 2531
electricity 2532
implementing 2533
unlikely 2534
10/20/2000 2535
secessionist 2536
murderer 2537
operational 2538
providing 2539
merrist 2540
;) 2541
motives 2542
follows 2543
components 2544
leaves 2545
population 2546
ozs 2547
equal 2548
projects 2549
bmc...@patriot.net 2550
cal 2551
put 2552
dec 2553
thelema 2554
stayed 2555
fostering 2556
space 2557
fame 2558
marshall 2559
damaged 2560
w. 2561
feathered 2562
frequently 2563
password 2564
counseling 2565
bankrupt 2566
mariner 2567
country’s 2568
events 2569
stabilization 2570
sandwich 2571
inn 2572
calendar 2573
about 2574
refuse 2575
attraction 2576
ourselves 2577
expire 2578
sources 2579
naive 2580
expansion 2581
private 2582
description 2583
mails 2584
calender 2585
850 2586
distributed 2587
kilinochchi 2588
february 2589
seed 2590
vent 2591
easier 2592
cleaner 2593
claws 2594
was 2595
generators 2596
bring 2597
agent 2598
produce 2599
powers 2600
bid 2601
chernobyl 2602
tastings 2603
expectations 2604
ulterior 2605
used 2606
deliberately 2607
honorable 2608
danger 2609
28th 2610
hotels 2611
2009 2612
initiative 2613
shackleton 2614
24,000 2615
fucking 2616
federal 2617
donations 2618
certificate 2619
horse 2620
enjoyed 2621
stands 2622
mins 2623
exchange 2624
offers 2625
hasina 2626
ive 2627
billy 2628
writer 2629
registration 2630
< 2631
hourly 2632
impressive 2633
best 2634
signal 2635
jan. 2636
ayatollah 2637
birthday 2638
acquired 2639
forming 2640
never 2641
cat 2642
belgium 2643
notepad 2644
crickets 2645
've 2646
patient 2647
receives 2648
mad 2649
tuesday's 2650
mud 2651
return 2652
moussaoui 2653
coastal 2654
prior 2655
what 2656
actions 2657
massive 2658
paradero 2659
popularity 2660
indicates 2661
men 2662
dinner 2663
introduced 2664
sushi 2665
platter 2666
insects 2667
craving 2668
glen 2669
nva 2670
innocent 2671
fagan 2672
visa 2673
realise 2674
manson 2675
factor 2676
confidante 2677
chaman 2678
outward 2679
zoom 2680
python 2681
conciliatory 2682
municipal 2683
wary 2684
jared 2685
four 2686
proprietary 2687
variety 2688
homes 2689
ceo 2690
s 2691
christianity 2692
uvb 2693
initial 2694
remained 2695
northeastern 2696
grenade 2697
! 2698
mayko 2699
parakeet 2700
fist 2701
perkins 2702
inc 2703
appetizers 2704
starbucks 2705
effectively 2706
filling 2707
outlet 2708
upper 2709
seeing 2710
blew 2711
wilt 2712
orange 2713
tens 2714
relief 2715
individually 2716
ring 2717
gis 2718
tragic 2719
worms 2720
classes 2721
meticulous 2722
weapons 2723
nearly 2724
declaration 2725
he'll 2726
ties 2727
imposing 2728
italian 2729
come 2730
releases 2731
enforcement 2732
issued 2733
bridget 2734
willingness 2735
quite 2736
ride 2737
r. 2738
means 2739
sticker 2740
cheveux 2741
remove 2742
sworn 2743
doubt 2744
mouse 2745
directorate 2746
demonstrates 2747
soups 2748
lagesse 2749
galleryfurniture.com 2750
conducting 2751
reliant 2752
found 2753
spirit 2754
yousef 2755
paul 2756
overall 2757
line 2758
rolled 2759
knew 2760
packed 2761
swg 2762
pump 2763
42 2764
include 2765
missing 2766
balance 2767
knock 2768
allow 2769
talking 2770
video 2771
grow 2772
elections 2773
twin 2774
antique 2775
aggravated 2776
e.g. 2777
spell 2778
quo 2779
perception 2780
raisers 2781
ease 2782
taiwan 2783
financing 2784
vi 2785
cop 2786
adequate 2787
identify 2788
intellectual 2789
2004 2790
writes 2791
essence 2792
innovation 2793
centralize 2794
arab 2795
hitting 2796
everyday 2797
brown 2798
beings 2799
recognition 2800
censored 2801
senate 2802
!!!? 2803
western 2804
screened 2805
filing 2806
teen 2807
presidential 2808
iranian 2809
deciding 2810
received 2811
gdp 2812
bosnia 2813
forgiveness 2814
seeking 2815
demons 2816
scheduled 2817
possible 2818
fuji 2819
tin 2820
frozen 2821
toxic 2822
musharraf 2823
blood 2824
default 2825
specials 2826
slight 2827
19 2828
large 2829
michelle 2830
tomorrow 2831
saleh 2832
814014 2833
lotus 2834
questioned 2835
toll 2836
skin 2837
gambling 2838
peoples 2839
straight 2840
reported 2841
delight 2842
items 2843
farmer 2844
nov. 2845
tripartite 2846
arrest 2847
denton 2848
gmat 2849
approaches 2850
beth 2851
task 2852
supposed 2853
lovely 2854
wear 2855
ready 2856
not 2857
vietnamese 2858
immediately 2859
lebanese 2860
wordy 2861
barbara 2862
38,000 2863
2005 2864
janet 2865
congregation 2866
evidently 2867
hear 2868
released 2869
adult 2870
word 2871
argumentative 2872
clarify 2873
nobody 2874
towards 2875
spacious 2876
tradename 2877
improve 2878
mezza 2879
prosecutors 2880
attach 2881
taught 2882
wisdom 2883
solely 2884
stabbed 2885
overwhelmingly 2886
see 2887
lanka 2888
6 2889
alternates 2890
shepherd 2891
zacarias 2892
db 2893
banners 2894
management 2895
areas 2896
fruits 2897
boy 2898
continued 2899
fans 2900
hauling 2901
resulted 2902
coverage 2903
derivatives 2904
manner 2905
scientist 2906
inspection 2907
ruined 2908
islamabad 2909
voters 2910
whipple 2911
anna 2912
replacing 2913
packs 2914
study 2915
paperwork 2916
flawless 2917
unwillingness 2918
requests 2919
4.7 2920
shukrijumah 2921
guaranties 2922
mission 2923
parmesan 2924
mpg 2925
farrier 2926
aires 2927
can 2928
race 2929
gu'ud 2930
depth 2931
vehicles 2932
ahead 2933
thane 2934
stunk 2935
breed 2936
sherri 2937
card 2938
puppets 2939
09/16/99 2940
jurisdiction 2941
54 2942
demanding 2943
inspired 2944
tw 2945
testimony 2946
ling 2947
typical 2948
sept. 2949
enclosed 2950
wade 2951
teachers 2952
conflicts 2953
floor 2954
quiz 2955
dispatch 2956
1990s 2957
hbs 2958
yelled 2959
bombings 2960
width 2961
thur. 2962
half 2963
mullah 2964
lengthy 2965
physios 2966
12 2967
rocks 2968
breathing 2969
slaves 2970
merger 2971
returning 2972
11-20-2000 2973
generating 2974
iran’s 2975
tube 2976
buildup 2977
recently 2978
phoned 2979
it 2980
theres 2981
prayer 2982
debt 2983
enron's 2984
medicine 2985
coupons 2986
prize 2987
panic 2988
objections 2989
looks 2990
crooks 2991
fold 2992
existed 2993
lies 2994
pulling 2995
wind 2996
drop 2997
views 2998
tomorrow's 2999
shame 3000
desk 3001
smells 3002
bombers 3003
taco 3004
happens 3005
infections 3006
football 3007
prosecution 3008
charlotte 3009
marek 3010
tonnes 3011
prices 3012
behind 3013
compliance 3014
berry 3015
museum 3016
pacheco 3017
total 3018
noble 3019
mere 3020
diplomats 3021
burst 3022
away 3023
plants 3024
baffin 3025
corporations 3026
gtee 3027
1937 3028
minds 3029
carolina 3030
pm 3031
increase 3032
1584 3033
console 3034
faces 3035
nepool 3036
; 3037
seperate 3038
souls 3039
confirmation 3040
licking 3041
blurred 3042
printing 3043
spokesman 3044
picture 3045
tables 3046
correction 3047
cork 3048
teh 3049
showed 3050
abruptly 3051
launching 3052
you'd 3053
ran 3054
defeats 3055
insurgents 3056
cancer 3057
potentially 3058
midterms 3059
success 3060
fence 3061
banner 3062
congratulations 3063
exclusion 3064
liau 3065
officials 3066
offer 3067
manage 3068
jet 3069
ukraine 3070
libra 3071
sri 3072
movements 3073
kind 3074
fee 3075
danelia 3076
eligible 3077
dr 3078
she 3079
staffs 3080
tana 3081
kids 3082
tks 3083
adjustment 3084
hammer 3085
profile 3086
juice 3087
5:30 3088
10/26/2000 3089
reservation 3090
alberta 3091
instead 3092
capricorn 3093
tariff 3094
zealand 3095
blacklined 3096
unsure 3097
didn’t 3098
parts 3099
2,000 3100
stable 3101
bbc 3102
truth 3103
focus 3104
english 3105
texan 3106
seasons 3107
production 3108
listening 3109
apprehension 3110
ursula 3111
telling 3112
(: 3113
cared 3114
compaq 3115
iraq's 3116
ironically 3117
sam 3118
1970 3119
encourage 3120
baby 3121
saved 3122
lifestyle 3123
defeated 3124
unique 3125
insist 3126
ward 3127
mistake 3128
characterized 3129
joined 3130
toledo 3131
chalabi 3132
founder 3133
rule 3134
hotline 3135
uecomm 3136
rediculous 3137
trafficking 3138
caroline 3139
molly 3140
wrinkles 3141
thereafter 3142
keeping 3143
expelling 3144
ta' 3145
radar 3146
miss 3147
lamb 3148
87 3149
lynch 3150
frankly 3151
aim 3152
started 3153
township 3154
ok 3155
amongst 3156
soon 3157
ice 3158
sj 3159
headlines 3160
04:37 3161
assembly 3162
listened 3163
croatia 3164
carry 3165
reputation 3166
969 3167
cruise 3168
cocktail 3169
ordinary 3170
colonization 3171
ut 3172
references 3173
brewery 3174
screaming 3175
03:20 3176
11:07 3177
shiite 3178
manipur 3179
define 3180
studios 3181
provide 3182
debts 3183
destruction 3184
extradited 3185
disgrace 3186
trained 3187
clinic 3188
facts 3189
disease 3190
importantly 3191
barrett 3192
brick 3193
harry 3194
dwarf 3195
farms 3196
studying 3197
repressed 3198
, 3199
especially 3200
wins 3201
mytouch 3202
choppy 3203
adhering 3204
102 3205
cooperating 3206
intent 3207
campaigning 3208
check 3209
baath 3210
fuel 3211
purse 3212
difficult 3213
taxes 3214
super 3215
both 3216
12:12 3217
pit 3218
sear's 3219
hunting 3220
monopoly 3221
expecting 3222
emissions 3223
portland 3224
excel 3225
killies 3226
design 3227
billing 3228
impressed 3229
dismissed 3230
forum 3231
john 3232
2:00 3233
books 3234
lme 3235
aims 3236
losing 3237
occupied 3238
brother 3239
photos 3240
26th 3241
regions 3242
would 3243
many 3244
employment 3245
faxed 3246
heating 3247
beware 3248
i.e. 3249
experiencing 3250
kurds 3251
tractor 3252
mod 3253
dave 3254
were 3255
snap 3256
darkness 3257
7484 3258
rawalpindi 3259
8:00 3260
uva 3261
??? 3262
graduated 3263
page 3264
staying 3265
hurting 3266
controls 3267
nerve 3268
separation 3269
family's 3270
ventilator 3271
11/08/2000 3272
size 3273
de 3274
presence 3275
finest 3276
load 3277
attentive 3278
nature 3279
universal 3280
75 3281
saturday 3282
hopefully 3283
standard 3284
guacamole 3285
dishes 3286
nutritional 3287
2000 3288
recieved 3289
tiny 3290
dg 3291
wouldn't 3292
dentist 3293
vast 3294
something 3295
electrostatic 3296
strong 3297
caucasian 3298
arabs 3299
limp 3300
handling 3301
monies 3302
salad 3303
dying 3304
liabilities 3305
hidden 3306
tanks 3307
preparation 3308
overcrowded 3309
india 3310
u.t. 3311
car 3312
portugal 3313
shenzhou 3314
overtures 3315
scheuer 3316
switzerland 3317
pricey 3318
los 3319
unnecessary 3320
sad 3321
changing 3322
kindly 3323
broadband 3324
+ 3325
ed 3326
sun. 3327
boi 3328
sr 3329
cabin 3330
improving 3331
mcnuggets 3332
windows 3333
migrated 3334
holidaying 3335
mountains 3336
paste 3337
substance 3338
corners 3339
george 3340
jiu 3341
label 3342
whatever 3343
wonderfully 3344
saddam 3345
queso 3346
nicely 3347
virus 3348
equity 3349
happy 3350
monthly 3351
consumer 3352
mailto:rosario.gonzales@compaq.com 3353
truck 3354
music 3355
montana 3356
acts 3357
fellow 3358
hay 3359
collaborate 3360
deliberate 3361
swiffer 3362
deny 3363
rachels 3364
alchemical 3365
notional 3366
wager 3367
solas 3368
shankman 3369
cant 3370
factors 3371
control 3372
orleans 3373
qualified 3374
naked 3375
tax 3376
lettuce 3377
power 3378
popular 3379
funds 3380
atrocities 3381
doctor 3382
regular 3383
during 3384
pilates 3385
ld2d-#69345-1.doc 3386
sometimes 3387
wallen 3388
'm 3389
scene 3390
feel 3391
atomic 3392
rgds 3393
wherever 3394
either 3395
peanuts 3396
arafat 3397
brent 3398
stored 3399
boasts 3400
graduate 3401
scientists 3402
thought 3403
kandahar 3404
subcontinent 3405
horrible 3406
case 3407
wife's 3408
patent 3409
rave 3410
recording 3411
ethnic 3412
politically 3413
shanks 3414
jews 3415
historic 3416
harshly 3417
repeating 3418
inferior 3419
element 3420
realizing 3421
conquest 3422
ri 3423
stealing 3424
earthquakes 3425
wish 3426
surrounded 3427
forster@enron 3428
separated 3429
potty 3430
ruth 3431
diplomat 3432
gov. 3433
downtown 3434
)) 3435
enter 3436
2012 3437
200 3438
vet 3439
over-rated 3440
mutilating 3441
counter 3442
thinking 3443
btw 3444
records 3445
blessings 3446
renegade 3447
hosted 3448
beatles 3449
hassle 3450
output 3451
mann 3452
operandi 3453
finished 3454
snacks 3455
impeccable 3456
nw 3457
north 3458
figured 3459
morality 3460
six 3461
republics 3462
biloxi 3463
classified 3464
blended 3465
reminder 3466
opera 3467
infected 3468
moderate 3469
exploited 3470
milk 3471
tile 3472
prospect 3473
weaponize 3474
victim 3475
carrier 3476
nam 3477
recovery 3478
monarchy 3479
eb 3480
carter 3481
easily 3482
rock 3483
antichrist 3484
estimate 3485
theft 3486
earned 3487
outrageously 3488
bosnian 3489
blackmail 3490
prophet 3491
saplings 3492
trail 3493
religion 3494
win 3495
shopping 3496
designated 3497
entirely 3498
result 3499
aluminum 3500
nissan 3501
absence 3502
sally 3503
kid 3504
carol.st.clair@enron.com 3505
7:30 3506
supplies 3507
trade 3508
arbitration 3509
a.m. 3510
exposed 3511
trends 3512
700 3513
invoice 3514
gotta 3515
ebs 3516
preparedness 3517
kriste 3518
ignored 3519
too 3520
thawed 3521
36 3522
cultures 3523
supporters 3524
temperatures 3525
singer 3526
eeftl 3527
jitsu 3528
unable 3529
ips 3530
reduce 3531
argentina 3532
temple 3533
2003 3534
vestry 3535
tolerate 3536
tourist 3537
xbox 3538
surprises 3539
chili 3540
satanism 3541
bailey 3542
date 3543
rome 3544
loving 3545
fashioned 3546
gda 3547
trivial 3548
mujahedeen 3549
ii 3550
gun 3551
contractors 3552
bluff 3553
situations 3554
daycare 3555
jafar 3556
grip 3557
necessarily 3558
consideration 3559
devices 3560
box 3561
shaikh 3562
ld2d-#69397-1.doc 3563
volatilities 3564
treating 3565
trotters 3566
mormon 3567
poa 3568
deep 3569
fleshing 3570
mine 3571
till 3572
driving 3573
referral 3574
verified 3575
belt 3576
scam 3577
responsible 3578
huh 3579
persue 3580
veterans 3581
newer 3582
menu 3583
now 3584
incredible 3585
reaction 3586
youngest 3587
describing 3588
founders 3589
japanese 3590
nations 3591
convenience 3592
guidelines 3593
48 3594
onwards 3595
trader 3596
clothes 3597
thru 3598
july 3599
mold 3600
massage 3601
showing 3602
9:30 3603
lysa 3604
credence 3605
form 3606
fingered 3607
titled 3608
kitty 3609
e 3610
s.d. 3611
jazeera 3612
sixteen 3613
historians 3614
unreported 3615
anti-ship 3616
atrophy 3617
grid 3618
halal 3619
01:58 3620
derivative 3621
charge 3622
position 3623
called 3624
industry 3625
bobby 3626
papeluna 3627
application 3628
sailing 3629
1,000 3630
indicate 3631
tradition 3632
ronn 3633
locker 3634
islam 3635
earth's 3636
conflict 3637
bitmap 3638
fitness 3639
software 3640
microwave 3641
slick 3642
let's 3643
conventional 3644
dan 3645
clock 3646
kinect 3647
tamil 3648
became 3649
reconsider 3650
arrv. 3651
plate 3652
1998 3653
wal 3654
somewhat 3655
strictly 3656
delayed 3657
animal 3658
bones 3659
gemini 3660
eliminate 3661
11608 3662
palestinians 3663
desperately 3664
philly 3665
cost 3666
behavior 3667
metering 3668
performance 3669
nuclear 3670
streets 3671
fell 3672
soviet 3673
values 3674
dead 3675
bringing 3676
professors 3677
contains 3678
tre 3679
looking 3680
dollar 3681
fried 3682
properties 3683
intimacy 3684
atta's 3685
scrap 3686
australia 3687
they 3688
waist 3689
cheney's 3690
bangladeshi 3691
amnesty 3692
reservations 3693
very 3694
miserable 3695
declined 3696
facilities 3697
likely 3698
unanimously 3699
convince 3700
vintage 3701
fly 3702
workshop 3703
www 3704
shooting 3705
had 3706
garage 3707
hood 3708
selling 3709
conservative 3710
camping 3711
phoenix 3712
responses 3713
siddiqui 3714
great 3715
vocals 3716
occurred 3717
semi-automatic 3718
being 3719
uncertainty 3720
who'd 3721
sound 3722
puppet 3723
fyi 3724
charged 3725
representation 3726
aye 3727
27th 3728
due 3729
accessibility 3730
science 3731
usa 3732
mother 3733
aren't 3734
denote 3735
road 3736
false 3737
kb 3738
calf 3739
through 3740
calgary 3741
colony 3742
engine 3743
golf 3744
high 3745
brought 3746
dvd 3747
dawa 3748
create 3749
wealth 3750
tub 3751
shop 3752
tna 3753
permanent 3754
overly 3755
reviews 3756
face 3757
accessible 3758
retaliation 3759
impose 3760
mailings 3761
smoothly 3762
robust 3763
latin 3764
blaming 3765
scooping 3766
accurate 3767
compassion 3768
aggressively 3769
pretend 3770
accident 3771
robinson 3772
ton 3773
creation 3774
13 3775
t.v. 3776
respecting 3777
families 3778
weakened 3779
pledge 3780
capability 3781
pounded 3782
scrutiny 3783
recommended 3784
gates 3785
flicker 3786
exceed 3787
cautious 3788
world 3789
amazingly 3790
chinese 3791
harm 3792
yes 3793
repulsive 3794
memos 3795
disintegration 3796
encouraged 3797
parents 3798
preachers 3799
ayman 3800
hugs 3801
camera 3802
sky 3803
percell@swbell.net 3804
wang 3805
accommodations 3806
tracks 3807
offering 3808
press 3809
traveller 3810
awol 3811
nano 3812
bugs 3813
husband 3814
disc 3815
lookout 3816
bridal 3817
brooklyn 3818
exploration 3819
claims 3820
v 3821
lavorato 3822
jack 3823
survey 3824
sweden 3825
rally 3826
solid 3827
damage 3828
cycle 3829
tragedy 3830
charity 3831
chairman 3832
established 3833
t3i 3834
tasted 3835
eagle 3836
climate 3837
fusions 3838
neither 3839
vanilla 3840
surely 3841
zahav 3842
gonzales 3843
company 3844
bernard 3845
fallen 3846
simple 3847
austria 3848
program 3849
yellow 3850
sunni 3851
airport 3852
specialist 3853
baudelaire 3854
fields 3855
passing 3856
ain't 3857
he'd 3858
hello 3859
exotic 3860
corps 3861
d 3862
feasible 3863
leaving 3864
fahrenheit 3865
bird 3866
burn 3867
soup 3868
jana 3869
detector 3870
lobby 3871
agreements 3872
british 3873
rahman's 3874
suggested 3875
eager 3876
preference 3877
navy 3878
places 3879
addicts 3880
67 3881
microcomputer 3882
piping 3883
reception 3884
iaea 3885
cozy 3886
legs 3887
stays 3888
egyptian 3889
kilometers 3890
iraqi 3891
trauma 3892
his 3893
tel 3894
systems 3895
deaths 3896
reagan 3897
full 3898
accounts 3899
height 3900
sent 3901
anticipate 3902
fill 3903
plotter 3904
verify 3905
bored 3906
straits 3907
laying 3908
noone 3909
personable 3910
9th 3911
utah 3912
non-bondad 3913
wording 3914
color 3915
6th 3916
excuses 3917
filled 3918
joy 3919
miracle 3920
suppressed 3921
eggs 3922
brack 3923
financially 3924
following 3925
deposit 3926
realize 3927
drool 3928
turning 3929
brigade 3930
ecological 3931
wakes 3932
revolution 3933
steak 3934
alternatives 3935
degrees 3936
abdul 3937
bangladesh 3938
wine 3939
conference 3940
nazi 3941
pashtun 3942
exit 3943
decade 3944
acquisition 3945
putting 3946
unthinkable 3947
correctly 3948
breathe 3949
fiscal 3950
that's 3951
versions 3952
new 3953
signed 3954
sign 3955
religious 3956
yards 3957
periods 3958
onboard 3959
iso 3960
christ 3961
30th 3962
defining 3963
feed 3964
wild 3965
edison 3966
blackworms 3967
adjusted 3968
raise 3969
wondering 3970
outdated 3971
peace 3972
penman 3973
pretty 3974
23 3975
glaring 3976
pager 3977
whenever 3978
companies 3979
casting 3980
nothing 3981
studio 3982
foreigners 3983
pound 3984
beaches 3985
ryan 3986
manufacturing 3987
crowleyan 3988
sovereignty 3989
rac 3990
south 3991
susan 3992
firmly 3993
available 3994
constraints 3995
difficulties 3996
dropping 3997
spay 3998
survive 3999
skills 4000
aldo 4001
decline 4002
secondary 4003
delivering 4004
functioning 4005
list 4006
procedure 4007
structure 4008
washington 4009
travelled 4010
gains 4011
hav 4012
phones 4013
individuals 4014
wan 4015
services 4016
jumping 4017
motion 4018
pennsylvania 4019
depending 4020
consumers 4021
hatfill 4022
fantasy 4023
restructuring 4024
hopes 4025
n 4026
vomit 4027
bacteriologist 4028
ends 4029
qadoos 4030
gras 4031
talent 4032
bees 4033
merchanting 4034
retaliate 4035
messy 4036
crap 4037
appropriate 4038
entered 4039
civil 4040
maids 4041
home 4042
abu 4043
subtle 4044
n’t 4045
subsequently 4046
percent 4047
armed 4048
goodwyn 4049
brand 4050
hes 4051
erin 4052
wrong 4053
eats 4054
naval 4055
alarm 4056
feeder 4057
10th 4058
impacts 4059
mon. 4060
guy 4061
rip 4062
excellence 4063
exercise 4064
scanning 4065
compatible 4066
scientific 4067
awful 4068
hawijah 4069
somebody 4070
drove 4071
mean 4072
weakening 4073
consider 4074
worthwhile 4075
sat. 4076
freeze 4077
habits 4078
indeed 4079
possibility 4080
eyes 4081
montparnasse 4082
defined 4083
forget 4084
penn 4085
dispute 4086
diagnose 4087
represent 4088
rebels 4089
senseless 4090
essentially 4091
pack 4092
setting 4093
overthrow 4094
wife 4095
iris 4096
phone 4097
epi 4098
children 4099
netherlands 4100
select 4101
afghan 4102
royal 4103
tries 4104
urge 4105
complex 4106
melting 4107
hated 4108
intuitive 4109
leopold 4110
assume 4111
threats 4112
promise 4113
train 4114
gas 4115
feeling 4116
envelopes 4117
mention 4118
lunch 4119
roadside 4120
prepare 4121
restaurants 4122
site 4123
revenues 4124
emergencies 4125
location 4126
cynical 4127
majority 4128
argued 4129
principal 4130
assure 4131
work 4132
taxi 4133
midst 4134
potable 4135
manipulate 4136
apologize 4137
anybody 4138
invitation 4139
p.o. 4140
...... 4141
agencies 4142
pioneer 4143
informative 4144
bond 4145
fo 4146
light 4147
letter 4148
inquiring 4149
controllers 4150
forwarding 4151
ferrari 4152
beginner 4153
anticipated 4154
insert 4155
disposal 4156
meanwhile 4157
one 4158
fps 4159
reminded 4160
guess 4161
drawer 4162
cured 4163
devastating 4164
g. 4165
prove 4166
sand 4167
fighting 4168
intermediate 4169
suggesting 4170
versa 4171
chains 4172
regency 4173
domestic 4174
director 4175
taylor 4176
dogs 4177
attributed 4178
mechanics 4179
contacted 4180
mayur...@yahoo.com 4181
kapor 4182
massoud 4183
gravy 4184
nowhere 4185
damascus 4186
peak 4187
repeat 4188
predator 4189
stores 4190
11:32 4191
carribbean 4192
drugs 4193
7 4194
crowd 4195
we'll 4196
citizen 4197
lou 4198
specify 4199
assumptions 4200
cities 4201
compressor 4202
mining 4203
warned 4204
quetta 4205
uncle 4206
tickets 4207
protest 4208
membership 4209
prisoners 4210
risk 4211
chosen 4212
worksheet 4213
addresses 4214
sinhalese 4215
down 4216
----- 4217
tap 4218
ft. 4219
made 4220
oppose 4221
peels 4222
balcony 4223
mystery 4224
silkies 4225
transmit 4226
remember 4227
solicit 4228
naming 4229
webpage 4230
present 4231
written 4232
trapped 4233
…. 4234
moment 4235
pastor 4236
1:30 4237
provision 4238
fy04 4239
wangs 4240
upi 4241
vince 4242
blind 4243
longer 4244
zaman 4245
65 4246
ending 4247
turkey 4248
beaver 4249
1991 4250
males 4251
strip 4252
legacy 4253
ins 4254
finance 4255
husband's 4256
hamas 4257
foreign 4258
lasting 4259
chicken 4260
advantage 4261
05/25/2001 4262
derrick 4263
female 4264
pregnancy 4265
side 4266
angeles 4267
root 4268
tracking 4269
blend 4270
walking 4271
pho 4272
hz 4273
walked 4274
fixing 4275
began 4276
country 4277
technical 4278
1561 4279
bothered 4280
rabbits 4281
initiate 4282
read 4283
whereas 4284
lacked 4285
overpriced 4286
jimmy 4287
ferc 4288
secret 4289
diversion 4290
505-625-8031 4291
gregg 4292
wait 4293
counsel 4294
dharmad...@gmail.com 4295
lesion 4296
p.m 4297
glowing 4298
enthusiasm 4299
learn 4300
ban 4301
year 4302
docking 4303
hard 4304
surrounding 4305
foz 4306
movement 4307
drafted 4308
indefinite 4309
6:30 4310
hamilton 4311
relating 4312
ultrasonic 4313
common 4314
status 4315
maviglio 4316
orbit 4317
israel's 4318
beating 4319
veteran 4320
aimed 4321
protects 4322
approved 4323
drill 4324
gaming 4325
beautifully 4326
conclude 4327
once 4328
apr 4329
10:25 4330
discount 4331
guarantees 4332
pdt 4333
03:48 4334
patronage 4335
coming 4336
exact 4337
booth 4338
matching 4339
belief 4340
4g 4341
mar 4342
highway 4343
purchased 4344
checkerspot 4345
mama`s 4346
cycling 4347
extend 4348
smooth 4349
extent 4350
katrina 4351
remote 4352
breeder 4353
enw_gcp 4354
competitive 4355
fever 4356
africa 4357
sara 4358
initials 4359
treats 4360
meier 4361
denis 4362
ruling 4363
sullivan 4364
statue 4365
militarily 4366
populated 4367
wander 4368
chicks 4369
mussels 4370
smart 4371
cowpland 4372
discretion 4373
x940 4374
enabling 4375
-- 4376
mill 4377
represented 4378
collages 4379
ineos 4380
loyal 4381
embedded 4382
touching 4383
jen 4384
noyce 4385
nadu 4386
er 4387
couple 4388
edinburgh 4389
leonardo 4390
distinguishing 4391
packages 4392
4-12 4393
milnet 4394
motive 4395
shadow 4396
nella 4397
tripped 4398
pizza 4399
levitt 4400
recruit 4401
closer 4402
while 4403
obtaining 4404
phy 4405
believes 4406
dilemmas 4407
1996 4408
dress 4409
hardly 4410
closed 4411
hitch 4412
crime 4413
rebellion 4414
honesty 4415
lower 4416
01/19/2001 4417
doesnt 4418
hair 4419
1000 4420
entering 4421
teacher 4422
thinks 4423
buses 4424
artwork 4425
duty 4426
delicate 4427
server 4428
naha 4429
parole 4430
creating 4431
10:56 4432
duties 4433
aware 4434
-stip 4435
beard 4436
missile 4437
suffer 4438
pets 4439
expenses 4440
cigarette 4441
territory 4442
discounted 4443
rockies 4444
tehran 4445
temporary 4446
commercial 4447
scholarship 4448
match 4449
clair 4450
bad 4451
japan 4452
evolution 4453
fortunate 4454
stating 4455
collage 4456
giovanni 4457
iguazu 4458
assigned 4459
finally 4460
remainder 4461
egm 4462
company's 4463
abandoning 4464
larry 4465
rod 4466
thoroughly 4467
customer's 4468
ways 4469
privacy 4470
biggest 4471
map 4472
parameters 4473
pan 4474
resting 4475
counterparty 4476
mediation 4477
equivalent 4478
article 4479
retirement 4480
years 4481
seconds 4482
hai 4483
solar 4484
enjoying 4485
duke 4486
jose 4487
implicated 4488
gaps 4489
watched 4490
stationery 4491
salesman 4492
climb 4493
help 4494
assault 4495
grim 4496
neighbours 4497
wii 4498
discomfort 4499
young 4500
racial 4501
devil's 4502
literally 4503
rotation 4504
ps3 4505
training 4506
agents 4507
secure 4508
31 4509
sticks 4510
declaring 4511
confused 4512
ad 4513
on 4514
outside 4515
amounts 4516
spot 4517
ingredient 4518
vulnerable 4519
reps. 4520
consortium 4521
kevin 4522
meat 4523
shrapnel 4524
pullers 4525
fourth 4526
pursuit 4527
sales 4528
mba 4529
launcher 4530
attract 4531
introduces 4532
association 4533
cabins 4534
enjoy 4535
chocolate 4536
favorites 4537
whose 4538
manufacture 4539
borders 4540
star 4541
800-553-3119 4542
starzz 4543
05 4544
plan 4545
grandchildren 4546
months 4547
crowds 4548
indefinitely 4549
actually 4550
central 4551
fun 4552
shona 4553
17 4554
taxpayers 4555
magnitude 4556
musical 4557
revise 4558
fray 4559
11/27/2000 4560
dropped 4561
bear's 4562
developments 4563
because 4564
creek 4565
12/26/2000 4566
21 4567
distracting 4568
television 4569
executive 4570
ronald 4571
juan 4572
background 4573
makes 4574
confirming 4575
romantic 4576
art 4577
cheese 4578
refers 4579
requested 4580
roberts 4581
circling 4582
f 4583
utility 4584
dedication 4585
employ 4586
jihadis 4587
gon 4588
checking 4589
simone 4590
balochistan 4591
compassionate 4592
juicy 4593
nailed 4594
intrepid 4595
chapter 4596
a&e 4597
concluded 4598
favourable 4599
example 4600
vc 4601
chief 4602
cafeteria 4603
almost 4604
+44 4605
www.weathereffects.com 4606
hang 4607
abramoff 4608
performers 4609
rented 4610
x 4611
officiate 4612
subject 4613
quickly 4614
most 4615
16's 4616
tacos 4617
nc 4618
freese 4619
before 4620
hereby 4621
works 4622
academy 4623
noticed 4624
willing 4625
wasp 4626
phyllis 4627
features 4628
bland 4629
impossible 4630
drug 4631
ongoing 4632
1774 4633
instructor 4634
mathematics 4635
strife 4636
wet 4637
clerics 4638
astronauts 4639
deposition 4640
life 4641
deteriorated 4642
stopped 4643
essie 4644
properly 4645
has 4646
1594 4647
played 4648
external 4649
anniversary 4650
interfere 4651
+++ 4652
proceed 4653
breaks 4654
iss 4655
tough 4656
8 4657
pencil 4658
hall 4659
published 4660
20th 4661
meditation 4662
maintain 4663
irs 4664
degenerate 4665
extraordinary 4666
tx 4667
laser 4668
jamaican 4669
degu 4670
jeju 4671
e. 4672
efforts 4673
screw 4674
google 4675
grandma 4676
grandparents 4677
confirmed 4678
motivation 4679
relationships 4680
bta 4681
throwing 4682
businesses 4683
dust 4684
mail 4685
wheel 4686
granting 4687
mars 4688
accordingly 4689
digital 4690
concentrating 4691
settlement 4692
vanish 4693
anywhere 4694
lebanon 4695
safer 4696
poll 4697
groups 4698
children's 4699
tattoo 4700
limbs 4701
rifles 4702
remain 4703
historical 4704
tremendous 4705
spikes 4706
modern 4707
conduct 4708
elizabeth 4709
intrigue 4710
92 4711
costs 4712
overwhelming 4713
sick 4714
rang 4715
definitions 4716
did 4717
protected 4718
hopeful 4719
nights 4720
kelly 4721
grant 4722
vof 4723
basking 4724
drivers 4725
ali 4726
efficiently 4727
pet 4728
tom 4729
grown 4730
sucked 4731
hu 4732
wires 4733
packard 4734
filtered 4735
gm 4736
diarrhea 4737
redlined 4738
memo 4739
sufficient 4740
right 4741
recipient 4742
!! 4743
batawi 4744
animated 4745
reasonably 4746
iii 4747
enemies 4748
denying 4749
endeavor 4750
june 4751
totally 4752
petsmart 4753
locally 4754
norma 4755
dealt 4756
bug 4757
apparent 4758
sheila 4759
battle 4760
lodging 4761
understandably 4762
towns 4763
3,202.61 4764
assassinated 4765
parliament 4766
garibaldi 4767
reasons 4768
threatened 4769
battery 4770
bidders 4771
sampling 4772
sadat 4773
agreeable 4774
atmosphere 4775
bag 4776
web 4777
cargill 4778
reads 4779
counted 4780
operate 4781
legislative 4782
videoconference 4783
hookers 4784
rounds 4785
of 4786
imported 4787
deliver 4788
casualty 4789
explosive 4790
thieves 4791
acquiring 4792
applied 4793
interconnect 4794
1920s 4795
appointment 4796
eurasia 4797
phillip 4798
demand 4799
soft 4800
wines 4801
beloved 4802
emery 4803
killie 4804
merit 4805
waterproof 4806
flipped 4807
funded 4808
human 4809
item 4810
devil 4811
troubles 4812
notification 4813
abdel 4814
isi 4815
decorated 4816
poverty 4817
give 4818
nope 4819
income 4820
cheek 4821
autonomy 4822
exploring 4823
generally 4824
auto 4825
condominium 4826
holly 4827
breakfast 4828
age 4829
equine 4830
historically 4831
words 4832
dislike 4833
prescribe 4834
stuck 4835
stomach 4836
squadrons 4837
ta 4838
get 4839
correspondence 4840
dividends 4841
... 4842
beer 4843
convictions 4844
dr. 4845
wasted 4846
we've 4847
acknowledged 4848
foster 4849
obviously 4850
outstanding 4851
censor 4852
cleaners 4853
fifty 4854
spelling 4855
rocket 4856
overseas 4857
marie 4858
song 4859
owner 4860
uth 4861
combined 4862
reputable 4863
requiring 4864
consulting 4865
incorrectly 4866
contain 4867
plague 4868
certified 4869
players 4870
thrown 4871
answering 4872
trap 4873
ruin 4874
week 4875
pedicure 4876
stepped 4877
500 4878
sea 4879
replaced 4880
army 4881
helicopter 4882
cullen 4883
satellite 4884
favoured 4885
danny 4886
punishment 4887
button 4888
conscientious 4889
impression 4890
hotmail 4891
qaim 4892
blows 4893
-ect-kedne 4894
to 4895
1580 4896
note 4897
liz 4898
mcdonald's 4899
walnut 4900
condition 4901
beach 4902
biting 4903
green 4904
morton 4905
lankan 4906
mills 4907
generic 4908
manliness 4909
l 4910
passenger 4911
nyc 4912
11:45 4913
destroy 4914
cdec 4915
messed 4916
supporting 4917
66 4918
added 4919
activities 4920
outback 4921
environment 4922
cut 4923
flip 4924
post-war 4925
flying 4926
pentagon 4927
republicans 4928
subscription 4929
judy 4930
efficient 4931
backs 4932
flatfish 4933
lyrics 4934
desired 4935
going 4936
wide 4937
establishments 4938
plates 4939
ids 4940
outcome 4941
129 4942
plus 4943
leverage 4944
jpy 4945
surroundings 4946
referenced 4947
penalties 4948
breeding 4949
fossum 4950
watching 4951
tighten 4952
frame 4953
imo 4954
pleasant 4955
oil 4956
--------------------------------------------------------------------- 4957
preacher 4958
women 4959
murillo 4960
occasional 4961
dated 4962
clearly 4963
fingers 4964
adopted 4965
seized 4966
fi 4967
ld2d-#69366-1.doc 4968
prostitute 4969
strict 4970
marines 4971
warmer 4972
cookies 4973
masks 4974
genocide 4975
rulers 4976
constitution 4977
account 4978
l/c 4979
jamming 4980
unlimited 4981
introduce 4982
enhanced 4983
climber 4984
fallibility 4985
screws 4986
kuwait 4987
chances 4988
keen 4989
first 4990
4_28_00.doc 4991
inspector 4992
realy 4993
cult 4994
03/15/2001 4995
drying 4996
earliest 4997
retired 4998
princeton 4999
columbia 5000
malls 5001
neurological 5002
again 5003
branch 5004
saddam's 5005
shrii 5006
engagement 5007
creatures 5008
extensions 5009
male 5010
thousand 5011
05:37 5012
answered 5013
beginning 5014
pass 5015
fat 5016
except 5017
kerry 5018
kingdom 5019
dissatisfied 5020
victor 5021
ak 5022
cares 5023
afternoon 5024
military 5025
character 5026
cambodia 5027
reasonable 5028
up 5029
artists 5030
taj 5031
distinction 5032
property 5033
chinatown 5034
cancelled 5035
identification 5036
twice 5037
misc.consumers 5038
defeat 5039
expanding 5040
mayor 5041
describe 5042
vicsandra 5043
1600 5044
quarter 5045
merging 5046
medium 5047
conclusion 5048
eater 5049
approximate 5050
ensure 5051
there’s 5052
might 5053
favorable 5054
reconciliation 5055
merely 5056
planeloads 5057
patio 5058
congress 5059
ego 5060
hobby 5061
coupled 5062
payout 5063
unbeatable 5064
200,000 5065
inexpensive 5066
holiday 5067
namsan 5068
revolutionary 5069
unity 5070
they've 5071
cdec's 5072
traveling 5073
08/03/2000 5074
poor 5075
meter 5076
joe 5077
optimistic 5078
visualization 5079
staffed 5080
machines 5081
holding 5082
dietrich 5083
expensive 5084
?? 5085
cropdusters 5086
tested 5087
hino 5088
proven 5089
para 5090
grille 5091
regard 5092
stamp 5093
johnette 5094
ecp 5095
convenient 5096
flakes 5097
ismail 5098
occasionally 5099
guerrillas 5100
uno 5101
january 5102
orla 5103
corp 5104
bush's 5105
joking 5106
hirier 5107
today 5108
vests 5109
!? 5110
second 5111
translated 5112
construction 5113
chick 5114
social 5115
snake's 5116
1 5117
petersen 5118
attack 5119
week's 5120
eric 5121
metro 5122
carriers 5123
accommodation 5124
hartpury 5125
smith 5126
agreed 5127
humanity 5128
screwed 5129
34 5130
honest 5131
55 5132
swing 5133
melts 5134
license 5135
twisted 5136
installing 5137
curtains 5138
potential 5139
indicated 5140
remind 5141
xferring 5142
designers 5143
completing 5144
demonstration 5145
only 5146
furnace 5147
marriage 5148
abundance 5149
seizures 5150
fiction 5151
pride 5152
houses 5153
strengthen 5154
chew 5155
abbudi 5156
thousands 5157
!!!!!!!!!! 5158
quietly 5159
compaq.com 5160
gibson 5161
enrongss.xls 5162
suffered 5163
rain 5164
email 5165
ben 5166
searching 5167
wednesday's 5168
introductions 5169
troops 5170
are 5171
edible 5172
precisely 5173
sometime 5174
letters 5175
bowen 5176
chris 5177
1179 5178
lost 5179
richest 5180
regularly 5181
brickell 5182
15th 5183
pr 5184
ucas 5185
apply 5186
enchiladas 5187
tigers 5188
ft 5189
sharon 5190
reconciling 5191
purple 5192
cool 5193
smuggling 5194
incomes 5195
tennessee 5196
kathy 5197
onshore 5198
mothers 5199
higher 5200
shell 5201
justice 5202
seal 5203
!!! 5204
robbie 5205
some 5206
artistic 5207
oracle 5208
recover 5209
2010 5210
virginia 5211
asymmetrical 5212
manufacturers 5213
litter 5214
rough 5215
priorities 5216
bankruptcy 5217
chanley 5218
/ 5219
bed 5220
pewter 5221
destinations 5222
knowledge 5223
dealer 5224
thanksgiving 5225
vomiting 5226
handy 5227
713-853-1696 5228
dramatically 5229
jr 5230
faced 5231
sickness 5232
aquarius 5233
0000108806 5234
guest 5235
origin 5236
fights 5237
uses 5238
approve 5239
downstream 5240
ontario 5241
murph 5242
kurdish 5243
symbolism 5244
myths 5245
kindle 5246
x33907 5247
heel 5248
login 5249
stanford 5250
tea 5251
incorrect 5252
visited 5253
speech 5254
earl 5255
ecommerce 5256
election 5257
lifeboat 5258
money 5259
diagnosed 5260
terms 5261
producers 5262
et 5263
cages 5264
biologist 5265
wa 5266
bars 5267
mia 5268
couldn't 5269
88 5270
moyross 5271
leave 5272
journalist 5273
repair 5274
contract 5275
proceedings 5276
slowly 5277
don 5278
lots 5279
lets 5280
shelter 5281
14th 5282
discrepancy 5283
mostly 5284
co. 5285
plane 5286
dog 5287
emma 5288
complications 5289
zone 5290
minutes 5291
master 5292
favorite 5293
slip 5294
marches 5295
fanatic 5296
truely 5297
whore 5298
special 5299
rode 5300
streamside 5301
mosques 5302
miller 5303
thereby 5304
hanging 5305
atty 5306
invoked 5307
explanation 5308
supposedly 5309
ship 5310
assets 5311
appear 5312
hi 5313
acrylic 5314
ugly 5315
solved 5316
laos 5317
spa 5318
reporter 5319
aryan 5320
elses 5321
observed 5322
con 5323
fairly 5324
other 5325
frontier 5326
democracy 5327
cook 5328
taller 5329
shoes 5330
solidarity 5331
recommend 5332
decook 5333
alone 5334
pixel 5335
vision 5336
yo 5337
awhile 5338
moves 5339
termination 5340
acquire 5341
simultaneously 5342
invited 5343
expanded 5344
arrogant 5345
shrink 5346
alternative 5347
nordau 5348
mid-august 5349
louise 5350
certainly 5351
exist 5352
cross 5353
optionality 5354
prepayment 5355
employed 5356
costly 5357
attendant 5358
karen 5359
off 5360
kilometres 5361
vegetarian 5362
administrative 5363
limit 5364
effects 5365
darker 5366
latest 5367
greatly 5368
bn 5369
late 5370
guard 5371
habitation 5372
giants 5373
backweb 5374
prc 5375
fabio 5376
conclusions 5377
cd 5378
critters 5379
quality 5380
blow 5381
narrow 5382
del 5383
zoo 5384
ramzi 5385
bread 5386
lexus 5387
queen 5388
bless 5389
technician 5390
2nd 5391
memorable 5392
morgan 5393
evaluation 5394
me 5395
sparks 5396
attending 5397
knowing 5398
worry 5399
mediocre 5400
curtain 5401
flats 5402
claiming 5403
r 5404
processes 5405
style 5406
unconnected 5407
foresee 5408
program's 5409
bus 5410
partner 5411
correct 5412
progress 5413
indivero 5414
minimum 5415
loan 5416
overnight 5417
allowed 5418
confidentiality 5419
night 5420
examples 5421
lot 5422
michigan 5423
foreigner's 5424
identifying 5425
casualties 5426
alibek 5427
opportunities 5428
tired 5429
myanmar 5430
scratching 5431
protection 5432
belly 5433
channel 5434
visualisations 5435
spare 5436
*** 5437
frustrated 5438
infantry 5439
attractive 5440
transactions 5441
unfortunately 5442
lifetime 5443
diseases 5444
absolute 5445
commodity 5446
financed 5447
negotiated 5448
steady 5449
cavern 5450
plastic 5451
hunger 5452
monday 5453
scenes 5454
yoga 5455
reins 5456
ugh 5457
practices 5458
focused 5459
ideation 5460
’s 5461
displaced 5462
steps 5463
copy 5464
please 5465
meowing 5466
promises 5467
respective 5468
stare 5469
cockatiel 5470
chandeliers 5471
15 5472
buyer 5473
march 5474
202.456.1414 5475
darren 5476
sweat 5477
answer 5478
renovation 5479
replies 5480
october 5481
manual 5482
traced 5483
non-approved 5484
brokerage 5485
contemplated 5486
ball 5487
derived 5488
migrate 5489
ps 5490
maria 5491
sets 5492
trustee's 5493
268 5494
beijing 5495
abused 5496
extremists 5497
crafter 5498
outer 5499
angie 5500
perform 5501
agra 5502
friendship 5503
ranch 5504
diagnostic 5505
iv 5506
eaten 5507
cheapest 5508
house 5509
virtual 5510
offerings 5511
bart's 5512
adjust 5513
osama 5514
sistani 5515
dry 5516
firm 5517
nz 5518
decided 5519
cod 5520
resturant 5521
father 5522
colombo 5523
jeopardy 5524
honda 5525
sure 5526
boston 5527
tints 5528
calling 5529
folks 5530
11:00 5531
disclosed 5532
mm 5533
portion 5534
deliveries 5535
releasing 5536
hizbullah 5537
badly 5538
show 5539
details 5540
option 5541
haircut 5542
comfort 5543
verizon 5544
cakes 5545
perfume 5546
designer 5547
gathering 5548
managers 5549
opposed 5550
praise 5551
yazid 5552
upset 5553
strategic 5554
traveler 5555
moslem 5556
red 5557
mode 5558
pointed 5559
jane 5560
fan 5561
yale 5562
buenos 5563
independent 5564
wolf 5565
pedicures 5566
comp.sources.unix 5567
be 5568
record 5569
burning 5570
horton 5571
co2 5572
furthermore 5573
mop 5574
implicit 5575
countries 5576
ruona 5577
inquiry 5578
someplace 5579
premium 5580
sibley 5581
inquiries 5582
california's 5583
sympathize 5584
1st 5585
wolens 5586
injured 5587
sao 5588
shedding 5589
dollars 5590
neck 5591
09 5592
wonders 5593
bearded 5594
report 5595
over 5596
hijackers 5597
begins 5598
airports 5599
pain 5600
given 5601
birth 5602
advise 5603
advances 5604
thanh 5605
peacekeeping 5606
proceeded 5607
assisting 5608
80's 5609
magic 5610
publication 5611
jolla 5612
flee 5613
required 5614
angle 5615
tozzini 5616
aside 5617
koran 5618
gentleman 5619
ignorant 5620
addressed 5621
church 5622
suffix 5623
blames 5624
enpower 5625
robinson's 5626
relates 5627
removed 5628
hill 5629
organized 5630
vs. 5631
instructions 5632
must 5633
aperture 5634
jordan 5635
everything 5636
incident 5637
food 5638
uniform 5639
shippers 5640
regimes 5641
smile 5642
communicative 5643
passes 5644
greater 5645
broker 5646
facility 5647
incitement 5648
homemade 5649
crossed 5650
john's 5651
ours 5652
markets 5653
jacks 5654
vaunted 5655
coast 5656
deployed 5657
spayed 5658
meet 5659
defense 5660
800 5661
fe 5662
referred 5663
tape 5664
|--------+-----------------------> 5665
jeff 5666
microns 5667
communication 5668
freight 5669
armored 5670
shifting 5671
save 5672
equipped 5673
anderson 5674
altitude 5675
exponentially 5676
father's 5677
provisions 5678
god 5679
airfare 5680
deemed 5681
canceling 5682
goes 5683
schedule 5684
hutch 5685
dismissing 5686
giving 5687
america 5688
sooner 5689
civet 5690
participants 5691
dean 5692
substantiation 5693
solutions 5694
ponchatoula 5695
often 5696
sistani's 5697
but 5698
songs 5699
mcnamara 5700
single 5701
category 5702
towed 5703
college 5704
harris 5705
globe 5706
abroad 5707
bean 5708
at 5709
period 5710
laundry 5711
under 5712
colleges 5713
allegations 5714
wayne 5715
user 5716
:d 5717
justification 5718
assured 5719
aerial 5720
ideas 5721
immigrants 5722
– 5723
alexandria 5724
polite 5725
two 5726
designed 5727
tempura 5728
pre 5729
treated 5730
desserts 5731
grace 5732
september 5733
fatal 5734
marry 5735
flower 5736
intercompany 5737
section 5738
armatho 5739
nicki 5740
tip 5741
still 5742
hearing 5743
sunny 5744
therefore 5745
grounds 5746
mohammed 5747
suspected 5748
outlets 5749
warren 5750
chemical 5751
beauty 5752
living 5753
pays 5754
guide 5755
bombs 5756
volunteer 5757
chest 5758
epithet 5759
afshari 5760
photograph 5761
peggy 5762
slovenia 5763
schooling 5764
percentage 5765
6871082# 5766
checked 5767
genesis 5768
horrific 5769
alliance 5770
tho 5771
though 5772
gripped 5773
sinh 5774
lodge 5775
networks 5776
die 5777
it'll 5778
evidence 5779
somewhere 5780
participation 5781
bengal 5782
vs 5783
nearby 5784
aircraft 5785
involves 5786
!!!! 5787
good 5788
philippine 5789
bazar 5790
tolerable 5791
amend 5792
liquidation 5793
absorb 5794
anthrax 5795
rail 5796
emailed 5797
merge 5798
contributed 5799
financial 5800
k 5801
transfer 5802
tamed 5803
>> 5804
consumption 5805
82 5806
monitor 5807
organizing 5808
lunar 5809
jury's 5810
calculating 5811
humane 5812
surplus 5813
bolivia 5814
via 5815
22 5816
soil 5817
alabama 5818
cleaned 5819
orlando 5820
relax 5821
industrial 5822
travel 5823
stove 5824
that 5825
distribution 5826
value 5827
film 5828
elected 5829
stages 5830
someone 5831
fundamentalist 5832
dances 5833
cooperation 5834
clients 5835
graphics 5836
carrying 5837
inner 5838
dispersing 5839
countrymen 5840
discussion 5841
idiots 5842
conviction 5843
abandoned 5844
techniques 5845
endo 5846
dependent 5847
upon 5848
patty 5849
skip 5850
suck 5851
influence 5852
function 5853
worries 5854
organizations 5855
driven 5856
former 5857
rest 5858
adjustments 5859
indo 5860
nor 5861
end 5862
imagination 5863
01/25/2001 5864
burrows 5865
400 5866
pay 5867
relative 5868
hurry 5869
ld2d-#69336-1.xls 5870
city 5871
f.o.b. 5872
deck 5873
weblogic 5874
signing 5875
rick's 5876
ex-members 5877
sounded 5878
walks 5879
satisfactory 5880
specifics 5881
aid 5882
operatives 5883
sanskrit 5884
shouldn't 5885
fulfilled 5886
shortly 5887
this 5888
elena's 5889
100 5890
alcoholism 5891
liquidations 5892
widely 5893
am 5894
51 5895
partial 5896
berkeley 5897
weight 5898
ingredients 5899
?! 5900
residual 5901
capable 5902
ulistic 5903
department 5904
bob 5905
bending 5906
dangerous 5907
17h 5908
establish 5909
closely 5910
critical 5911
3889 5912
dental 5913
oct. 5914
consciousness 5915
receiving 5916
authentic 5917
roosters 5918
pair 5919
nicobar 5920
staff 5921
them 5922
host 5923
ups 5924
points 5925
democratic 5926
paw 5927
anger 5928
warning 5929
meantime 5930
minute 5931
writing 5932
plenty 5933
originally 5934
recreate 5935
disappointed 5936
melanie 5937
v02 5938
estimates 5939
follow 5940
___________ 5941
saudi 5942
donate 5943
bakers 5944
bhutan 5945
won't 5946
why 5947
dire 5948
bottle 5949
sigh 5950
deputy 5951
impenetrable 5952
switched 5953
object 5954
acia 5955
filters 5956
cup 5957
lying 5958
connections 5959
persistent 5960
refused 5961
university 5962
40,000 5963
helps 5964
farm 5965
suspicious 5966
unpredictable 5967
horses 5968
igts 5969
250 5970
sheds 5971
s. 5972
sorts 5973
achieving 5974
predominantly 5975
buchanan 5976
posters 5977
bright 5978
hibernate 5979
annoying 5980
wisconsin 5981
junk 5982
murders 5983
admit 5984
particularly 5985
concert 5986
send 5987
room 5988
passcode 5989
fabio's 5990
samuel 5991
re-read 5992
weapon 5993
lead 5994
politicians 5995
enquirer 5996
07:24 5997
pleadings 5998
sooners 5999
handful 6000
cold 6001
non 6002
camper 6003
==================================================== 6004
looting 6005
5:00 6006
hours 6007
flooding 6008
booked 6009
bout 6010
embarrassed 6011
hoax 6012
certain 6013
helicopters 6014
phrase 6015
ees 6016
capitol 6017
stars 6018
damn 6019
la 6020
cave 6021
file 6022
will 6023
fugitives 6024
funding 6025
missiles 6026
bpd 6027
paulo 6028
followers 6029
remarks 6030
delighted 6031
models 6032
california 6033
62 6034
] 6035
photo 6036
dusters 6037
investigations 6038
raising 6039
exhibit 6040
spreadsheet 6041
benefit 6042
meaningful 6043
crews 6044
guardian 6045
useless 6046
!. 6047
offensive 6048
articles 6049
oldest 6050
grand 6051
cases 6052
elements 6053
aspects 6054
early 6055
meaning 6056
`s 6057
morning 6058
mini 6059
elena 6060
saying 6061
rinsed 6062
mainstream 6063
bit 6064
little 6065
performed 6066
centuries 6067
strait 6068
megawatt 6069
running 6070
desperate 6071
despair 6072
wasn't 6073
gi 6074
ibm 6075
eastern 6076
lethal 6077
pipefitters 6078
committed 6079
---->===}*{===<---- 6080
nausea 6081
tuna 6082
clause 6083
filed 6084
neighborhoods 6085
everland 6086
wood 6087
christmas 6088
entrance 6089
d7000 6090
sons 6091
treatments 6092
feet 6093
detective 6094
nation 6095
11 6096
nose 6097
tronicus 6098
rebel 6099
essie's 6100
denial 6101
channels 6102
harvard 6103
calendars 6104
hangar 6105
china 6106
fusion 6107
associate 6108
forster 6109
neighbor 6110
exactly 6111
revocation 6112
whilst 6113
bags 6114
steven 6115
contained 6116
nguyen 6117
appreciated 6118
rotorua 6119
holes 6120
abundantly 6121
maniac 6122
lawmakers 6123
messages 6124
government 6125
yang 6126
extreme 6127
hills 6128
pew 6129
files 6130
cartoons 6131
continuing 6132
knife 6133
escaping 6134
council 6135
exam 6136
30 6137
baathists 6138
homeland 6139
christchurch 6140
click 6141
kalkat 6142
tutorial 6143
length 6144
indifferent 6145
713-654-1281 6146
seating 6147
21,000 6148
lax 6149
flight 6150
considered 6151
handled 6152
x3-9890 6153
soldiers 6154
ei 6155
country's 6156
do 6157
islands 6158
dee 6159
schott 6160
joke 6161
intolerance 6162
transport 6163
id 6164
monitored 6165
rothko 6166
society 6167
specifications 6168
roosevelt 6169
policies 6170
daughter 6171
finding 6172
continually 6173
psp 6174
lara 6175
urine 6176
structuring 6177
repaired 6178
wolves 6179
incubating 6180
skies 6181
worse 6182
agrees 6183
miami 6184
entire 6185
reviewer 6186
jaw 6187
whether 6188
view 6189
lynn 6190
gold 6191
extinction 6192
nt 6193
throw 6194
festival 6195
antonio 6196
dark 6197
literature 6198
noon 6199
developer 6200
verdict 6201
gambit 6202
researching 6203
patrons 6204
institutions 6205
immigration 6206
cash 6207
skill 6208
welcomed 6209
canned 6210
indian 6211
surprisingly 6212
proud 6213
shreveport 6214
gave 6215
amazing 6216
israel 6217
wyoming 6218
forth 6219
sense 6220
southern 6221
else 6222
hussein 6223
rep 6224
dial 6225
transfers 6226
nasa's 6227
fry 6228
registrar 6229
quixote 6230
graphic 6231
routinely 6232
usually 6233
poses 6234
sat 6235
operator 6236
hey 6237
holocaust 6238
buyers 6239
postpone 6240
childhood 6241
catch 6242
schizophrenic 6243
fujairah 6244
russia 6245
nearest 6246
campus 6247
action 6248
newly 6249
frustrating 6250
mortars 6251
builders 6252
hospitality 6253
mankind 6254
protein 6255
confidential 6256
deli 6257
calcutta 6258
fhs 6259
teresa 6260
miseries 6261
above 6262
cultural 6263
tribal 6264
charcoal 6265
territories 6266
tankers 6267
wavy 6268
woman 6269
mary.ellenberger@enron.com 6270
ages 6271
sonic 6272
ashcroft 6273
facing 6274
gyanendra 6275
epstein 6276
affect 6277
mass 6278
sympathy 6279
katie 6280
towels 6281
backed 6282
bj 6283
lawyer 6284
ammonia 6285
party 6286
gaza 6287
poorly 6288
utensils 6289
range 6290
nasty 6291
express 6292
accessories 6293
midas 6294
musk 6295
satisfy 6296
lorie 6297
al 6298
stronger 6299
cake 6300
toes 6301
fake 6302
terrorists 6303
travis 6304
tag 6305
nepco 6306
disgusting 6307
regulatory 6308
ag 6309
affected 6310
covering 6311
authorities 6312
visitor 6313
database 6314
who 6315
biochemist 6316
hauled 6317
dilute 6318
assuming 6319
56 6320
wednesday 6321
she's 6322
texts 6323
elliott 6324
opportunity 6325
technologies 6326
parks 6327
sf 6328
leather 6329
sucks 6330
primaries 6331
lines 6332
hence 6333
bet 6334
couples 6335
belong 6336
citizens 6337
amsterdam 6338
02-05-02.doc 6339
fired 6340
gifts 6341
negotiating 6342
atlantic 6343
practice 6344
lazy 6345
fear 6346
evangelicals 6347
moors 6348
concur 6349
$ 6350
gerry 6351
10:34 6352
rodents 6353
etiquette 6354
instance 6355
1960s 6356
depends 6357
opinion 6358
chance 6359
763736 6360
propaganda 6361
willingly 6362
split 6363
entry 6364
circulate 6365
objectives 6366
mice 6367
use 6368
determine 6369
learned 6370
arctic 6371
devoted 6372
embarrassing 6373
mathematical 6374
i've 6375
harrison 6376
it's 6377
boots 6378
saviour 6379
reccomend 6380
pjm 6381
aged 6382
front 6383
alcohol 6384
richard 6385
neighborhood 6386
lotte 6387
awarded 6388
enterprise 6389
approximately 6390
eat 6391
lions 6392
downside 6393
canon 6394
fruit 6395
etc. 6396
loc 6397
's 6398
05/30/2001 6399
tabs 6400
suburbs 6401
ahmed 6402
summer 6403
stick 6404
extremely 6405
decision 6406
reality 6407
expired 6408
hmmm 6409
generate 6410
nevertheless 6411
evenings 6412
5th 6413
hole 6414
>----------------------------------------------------------------------------| 6415
perfect 6416
mouth 6417
jeffs 6418
valuable 6419
dunn 6420
expertise 6421
worst 6422
sept 6423
members 6424
swift 6425
20s 6426
contest 6427
remaining 6428
licensed 6429
jury 6430
moderates 6431
grateful 6432
’’ 6433
by 6434
pigs 6435
firing 6436
dc 6437
spawning 6438
abby 6439
lawyers 6440
dempsey 6441
michele 6442
bases 6443
urged 6444
rittenhouse 6445
talented 6446
likewise 6447
seen 6448
polygamous 6449
interest 6450
economy 6451
planned 6452
nj 6453
wise 6454
purpose 6455
trash 6456
sharp 6457
mailto:amy.cornell@compaq.com 6458
inoperable 6459
( 6460
rejected 6461
trigger 6462
rank 6463
max 6464
somehow 6465
--- 6466
waste 6467
bleeding 6468
gracee 6469
scale 6470
real 6471
incompetence 6472
spite 6473
pea 6474
promotion 6475
neuter 6476
security 6477
inviting 6478
opossums 6479
advisory 6480
tropez 6481
cheney 6482
awaiting 6483
thankfully 6484
haven 6485
p 6486
nest 6487
secretly 6488
amy 6489
chiefs 6490
prey 6491
rogers 6492
epm 6493
dramatic 6494
9221 6495
updated 6496
q1 6497
explained 6498
ogden 6499
plans 6500
you've 6501
resisted 6502
announced 6503
triggered 6504
investigate 6505
i 6506
highlighting 6507
bareback 6508
stark 6509
limited 6510
gets 6511
harass 6512
courtesy 6513
disrupt 6514
further 6515
projected 6516
essential 6517
2:30 6518
carried 6519
pushed 6520
09:45 6521
ruy 6522
ensuring 6523
say 6524
tensions 6525
barely 6526
nmanne@susmangodfrey.com 6527
origination 6528
passed 6529
thomas 6530
cloud 6531
consulates 6532
meats 6533
truly 6534
01:14 6535
salads 6536
comparing 6537
stipulation 6538
minor 6539
redwood 6540
mentioned 6541
includes 6542
preventing 6543
healing 6544
denmark 6545
lab 6546
3143c 6547
junior 6548
gray 6549
users 6550
mate 6551
geared 6552
urgent 6553
forced 6554
foie 6555
sessions 6556
27 6557
genes 6558
stout 6559
telephone 6560
rewards 6561
kg 6562
trillion 6563
largest 6564
mountain 6565
exposure 6566
deserve 6567
logic 6568
moon 6569
merchant 6570
regulations 6571
travelers 6572
gross 6573
archibald 6574
incubation 6575
stream 6576
insight 6577
****************************************************************** 6578
blocks 6579
6.2.1 6580
parties 6581
begin 6582
andrew 6583
guarantee 6584
finland 6585
‘’ 6586
powell 6587
care 6588
concerned 6589
scammers 6590
collapse 6591
between 6592
holdings 6593
district 6594
progresses 6595
enemy 6596
transmitted 6597
lace 6598
dominated 6599
revised 6600
convinced 6601
mistaken 6602
conversation 6603
observers 6604
unloading 6605
release 6606
stop 6607
recruited 6608
ramp 6609
odd 6610
april 6611
forbid 6612
judging 6613
winter's 6614
ports 6615
perez 6616
hybrid 6617
rico 6618
shackleton@ect 6619
u.k 6620
suite 6621
saudis 6622
urinals 6623
workmanship 6624
pressure 6625
scary 6626
1980 6627
realized 6628
andamans 6629
tonnage 6630
2018 6631
appropriations 6632
transparent 6633
won 6634
eliminating 6635
occur 6636
saddle 6637
love 6638
lamp 6639
eliminated 6640
ask 6641
tons 6642
friend 6643
marketers 6644
islamist 6645
commissioners 6646
existence 6647
reflects 6648
behold 6649
watch 6650
renowned 6651
linked 6652
47 6653
global 6654
emails 6655
directly 6656
balochi 6657
focuses 6658
invite 6659
hams 6660
preparing 6661
settled 6662
movie 6663
supplied 6664
lifeboats 6665
analysts 6666
anyway 6667
gouging 6668
romania 6669
flaw 6670
assurance 6671
deterioration 6672
sinhala 6673
bomb 6674
tension 6675
build 6676
d.c. 6677
equality 6678
penny 6679
organize 6680
expression 6681
illegal 6682
5,000 6683
container 6684
interesting 6685
x365 6686
urban 6687
manufactured 6688
knights 6689
upstairs 6690
terminal 6691
automatically 6692
spine 6693
wanna 6694
classic 6695
gently 6696
brainwash 6697
ultimately 6698
containing 6699
santa 6700
expense 6701
russian 6702
hambali 6703
ono 6704
gather 6705
contractual 6706
succeed 6707
governorates 6708
unnamed 6709
metals 6710
appropriately 6711
dealership 6712
sponsorship 6713
diplomatic 6714
trades 6715
distinguished 6716
napa 6717
revisions 6718
singles 6719
co 6720
cst 6721
puts 6722
woodinville 6723
interviewers 6724
kaufman 6725
czech 6726
police 6727
buis 6728
explosives 6729
banks 6730
karim 6731
phenophases 6732
related 6733
locust 6734
uneven 6735
immigrate 6736
examine 6737
sanders 6738
sadr 6739
tower 6740
jesus 6741
pat 6742
rapidly 6743
approval 6744
gang 6745
command 6746
determination 6747
magazine 6748
warehouse 6749
nick 6750
serves 6751
marketing 6752
ranging 6753
basically 6754
bombing 6755
repeatedly 6756
coalition 6757
drafts 6758
taken 6759
giggled 6760
development 6761
leads 6762
painful 6763
prearranged 6764
hazim 6765
epc 6766
512 6767
reassure 6768
liberal 6769
saltford 6770
mailing 6771
rocky 6772
milan 6773
rid 6774
privileged 6775
bull 6776
teething 6777
restrictions 6778
17th 6779
course 6780
at&t 6781
alarms 6782
philadelphia 6783
traveled 6784
republican 6785
envoy 6786
dulaim 6787
respectively 6788
allocate 6789
bulbs 6790
steve 6791
kaminski 6792
feared 6793
spreading 6794
cashout 6795
donor 6796
soaking 6797
walker 6798
_ 6799
isn't 6800
retreat 6801
small 6802
therapist 6803
ripped 6804
hamid 6805
ld2d-#69381-1.doc 6806
totes 6807
fight 6808
helping 6809
’ 6810
loads 6811
t's 6812
impressionist 6813
worship 6814
inability 6815
rather 6816
destination 6817
general 6818
pale 6819
edt 6820
toys 6821
these 6822
least 6823
romance 6824
regulated 6825
baghdad 6826
hookless 6827
isda 6828
fei 6829
afore 6830
til 6831
csis 6832
karma 6833
14 6834
picking 6835
ames 6836
loves 6837
where 6838
governmental 6839
meh-risk 6840
knows 6841
virgo 6842
feild 6843
uk 6844
jalalabad 6845
leaf 6846
results 6847
submit 6848
stuart 6849
obtain 6850
longevity 6851
hedging 6852
constitutional 6853
wounded 6854
amended 6855
resident 6856
elpaso 6857
kay 6858
robin 6859
missed 6860
what's 6861
promptly 6862
el 6863
economical 6864
couch 6865
oops 6866
beg 6867
drive 6868
1969 6869
laptop 6870
receptionist 6871
chs 6872
enormous 6873
creekside 6874
register 6875
61 6876
http://www.euci.com/pdf/trans_expn.pdf 6877
traders 6878
judicial 6879
tmobile 6880
project 6881
calls 6882
74419 6883
fancy 6884
11/10/2000 6885
x35172 6886
season 6887
mr. 6888
bedroom 6889
mesh 6890
relevant 6891
millions 6892
49 6893
bulb 6894
last 6895
tsunami 6896
yeah 6897
cons 6898
cruel 6899
bin 6900
bud 6901
advance 6902
supported 6903
bucks 6904
secular 6905
controversial 6906
partners 6907
medieval 6908
finances 6909
deregulation 6910
mccartney 6911
yellowstone 6912
heights 6913
surprising 6914
disco 6915
republic 6916
sites 6917
29 6918
l.l.c 6919
spring 6920
rumor 6921
yahoos 6922
pact 6923
spain 6924
dasovich 6925
court 6926
2006 6927
decoud 6928
criteria 6929
cpi 6930
sort 6931
promoted 6932
03/02/2001 6933
ear 6934
town 6935
da 6936
completly 6937
politics 6938
century 6939
craig 6940
iep 6941
hosting 6942
computers 6943
eaters 6944
look 6945
enough 6946
photographer 6947
wallet 6948
waterfalls 6949
audit 6950
wed 6951
occupation 6952
successfully 6953
adriana 6954
nightmare 6955
round 6956
vain 6957
fine 6958
allowance 6959
iraq 6960
jazz 6961
colors 6962
commission's 6963
parking 6964
versus 6965
pursuing 6966
applicant 6967
gravity 6968
9 6969
choate 6970
thx 6971
aafia 6972
worked 6973
rabbit 6974
reimbursed 6975
choice 6976
suddenly 6977
east 6978
underage 6979
besides 6980
gcp_london 6981
harmony 6982
beds 6983
uh 6984
arena 6985
iceland 6986
hurling 6987
swap 6988
st. 6989
paula 6990
biz 6991
develops 6992
americas 6993
achieve 6994
owe 6995
strategies 6996
fusionretail 6997
francis 6998
killed 6999
greeter 7000
identical 7001
well 7002
post 7003
multiple 7004
withdrawn 7005
victims 7006
pen 7007
nudes 7008
intentions 7009
indians 7010
qa'ida 7011
until 7012
dominant 7013
monday's 7014
____________________________________________________________ 7015
activity 7016
hats 7017
3:30 7018
03/08/2000 7019
kashmir 7020
mwh 7021
muscles 7022
algeria 7023
discovered 7024
famous 7025
attempts 7026
bechtel 7027
nook 7028
deb 7029
xf 7030
gastroenteritis 7031
yourself 7032
original 7033
urinary 7034
substantive 7035
u 7036
wilson 7037
finch 7038
inflation 7039
priority 7040
disappearance 7041
install 7042
strippers 7043
later 7044
manufacturer 7045
gallery 7046
silent 7047
forwarded 7048
leader 7049
purposes 7050
electric 7051
nationwide 7052
ferrous 7053
3/8/00 7054
expected 7055
friday's 7056
6.00 7057
tree 7058
included 7059
aster 7060
04/30/2001 7061
rover 7062
having 7063
p.s. 7064
withdrew 7065
33 7066
crossing 7067
appointees 7068
567.77 7069
northern 7070
sensitivity 7071
is 7072
bombast 7073
newark 7074
beyond 7075
magical 7076
sicily 7077
attend 7078
mechanism 7079
owes 7080
diversity 7081
blank 7082
patricia 7083
questions 7084
whole 7085
edwards 7086
troubled 7087
paris 7088
lock 7089
needing 7090
fewer 7091
attention 7092
rescheduled 7093
quit 7094
40 7095
average 7096
gmt 7097
p&l 7098
tried 7099
forbidding 7100
beats 7101
christian 7102
catastrophic 7103
gen. 7104
disney 7105
cards 7106
flights 7107
pacific 7108
loretta 7109
economic 7110
won’t 7111
qanooni 7112
reliability 7113
siege 7114
specific 7115
eight 7116
materials 7117
such 7118
lineatus 7119
hope 7120
researchers 7121
establishment 7122
learnt 7123
mekong 7124
giant 7125
premises 7126
timely 7127
denise 7128
removal 7129
p.m. 7130
beneath 7131
karachi 7132
reached 7133
reference 7134
militias 7135
roles 7136
routes 7137
stops 7138
tiger 7139
kinda 7140
losses 7141
towing 7142
polar 7143
3.5 7144
a. 7145
retarded 7146
jerry 7147
? 7148
belonging 7149
forums 7150
draft 7151
marianne 7152
visualize 7153
roof 7154
personally 7155
maintenance 7156
painter 7157
reporting 7158
foods 7159
armaments 7160
dessert 7161
thief 7162
dallas 7163
stone 7164
liability 7165
gcp 7166
officer 7167
fishman 7168
10:00 7169
figures 7170
springs 7171
bc 7172
vice 7173
9/11 7174
organisations 7175
makkai 7176
really 7177
laden 7178
ets 7179
intense 7180
embassies 7181
format 7182
affluent 7183
suggest 7184
coil 7185
troy 7186
chef 7187
problem 7188
couldnt 7189
rating 7190
warmth 7191
ami 7192
complexes 7193
less 7194
uncertain 7195
mix 7196
warfare 7197
assess 7198
musharraf's 7199
69 7200
lighting 7201
participated 7202
#'s 7203
linda's 7204
ene 7205
shock 7206
mama 7207
parent 7208
sufaat 7209
norway 7210
coat 7211
author 7212
movies 7213
03/09/2000 7214
richmond 7215
adorable 7216
“ 7217
hectic 7218
dublin 7219
adequately 7220
contacts 7221
ivan 7222
wow 7223
anyways 7224
responsibility 7225
montgomery 7226
bna 7227
relate 7228
dragon 7229
committee 7230
enron 7231
subpoenas 7232
hh 7233
slow 7234
're 7235
kept 7236
pleasantly 7237
kaplan 7238
transition 7239
suitcases 7240
loot 7241
beside 7242
relaxed 7243
courses 7244
mohawk 7245
atef 7246
complain 7247
spinal 7248
reconciled 7249
explain 7250
cognitively 7251
dhaka 7252
respect 7253
arrested 7254
leahy 7255
delicious 7256
7:00 7257
terrible 7258
4:50 7259
angel 7260
temper 7261
300 7262
imprisonment 7263
openly 7264
skipping 7265
reflecting 7266
undecided 7267
copied 7268
47,500 7269
wives 7270
j 7271
ethnically 7272
biodefense 7273
conferences 7274
constant 7275
jupiter 7276
data 7277
generates 7278
2002 7279
radison 7280
rev. 7281
greendale 7282
remembered 7283
withdraw 7284
theory 7285
content 7286
refund 7287
intended 7288
spears 7289
employees 7290
northeast 7291
04:17 7292
charm 7293
hr 7294
1972 7295
wether 7296
start 7297
delivery 7298
boxes 7299
scorpio 7300
halfway 7301
smallest 7302
shuttle 7303
marvelous 7304
signoff 7305
informed 7306
luncheon 7307
according 7308
thwarted 7309
281-435-0295 7310
native 7311
around 7312
cindy 7313
ariel 7314
knee 7315
documentation 7316
stringing 7317
mines 7318
coordinated 7319
device 7320
adventure 7321
signals 7322
skyrocketing 7323
hers 7324
astounding 7325
nicest 7326
reef 7327
tended 7328
slept 7329
extremist 7330
weird 7331
specified 7332
nostrils 7333
sixth 7334
whatsoever 7335
19th 7336
luan 7337
limits 7338
temperature 7339
drops 7340
tour 7341
drilling 7342
1:00 7343
largely 7344
palestinian 7345
nmemdrft8-7-01 7346
sorry 7347
burnt 7348
ld2d-#69334-1.doc 7349
let 7350
featured 7351
revealed 7352
ammunition 7353
pinkies 7354
fact 7355
isolated 7356
mares 7357
approach 7358
extradition 7359
alito 7360
nephew 7361
uniquely 7362
supplement 7363
cc 7364
hunter 7365
education 7366
misconception 7367
-final.doc 7368
firstly 7369
hewlett 7370
per 7371
spores 7372
requirement 7373
discouraged 7374
ecosystems 7375
georgia 7376
brenner 7377
contracts 7378
electrical 7379
household 7380
puff 7381
mma 7382
seoul 7383
cheap 7384
walk 7385
neal 7386
controlled 7387
figure 7388
hunt 7389
rove 7390
batch 7391
and 7392
operations 7393
homeless 7394
border 7395
dine 7396
younger 7397
hearings 7398
lindh 7399
loading 7400
excited 7401
satisfied 7402
conflagration 7403
shady 7404
boarding 7405
perceived 7406
^_^ 7407
china's 7408
mixed 7409
mantra 7410
davis 7411
weekends 7412
u.n. 7413
lift 7414
afford 7415
sponsored 7416
ranger 7417
comfortable 7418
reptile 7419
winning 7420
explode 7421
recalculation 7422
could 7423
assassination 7424
listing 7425
school 7426
arrived 7427
launch 7428
layers 7429
deserves 7430
carnival 7431
pilot 7432
ip 7433
fleeing 7434
drama 7435
tablet 7436
benefits 7437
kinds 7438
20.doc 7439
musician 7440
familiar 7441
conducted 7442
instant 7443
housed 7444
i'll 7445
cheaply 7446
zawahiri's 7447
crazy 7448
max's 7449
dusting 7450
wikipedia 7451
tips 7452
sheriff 7453
thanks 7454
complaint 7455
nation's 7456
labor 7457
humble 7458
cousin 7459
fallout 7460
categories 7461
highly 7462
family 7463
ordinarily 7464
curse 7465
?!? 7466
version 7467
trend 7468
ten 7469
04:28 7470
guilty 7471
promote 7472
chefs 7473
jr. 7474
ca 7475
hearts 7476
pubs 7477
spread 7478
provided 7479
moved 7480
boys 7481
oven 7482
situation 7483
regional 7484
domain 7485
conspiracy 7486
sufaat's 7487
straightened 7488
meals 7489
sciencem...@upi.com 7490
honor 7491
reserve 7492
collect 7493
compared 7494
fighter 7495
centimetre 7496
starving 7497
ect 7498
close 7499
publicly 7500
commander 7501
corp. 7502
lack 7503
toyota 7504
ill 7505
primarily 7506
preparations 7507
feather 7508
investigation 7509
obl 7510
rejection 7511
drawn 7512
severe 7513
grey 7514
stain 7515
awesome 7516
cover 7517
infrastructure 7518
beginners 7519
deals 7520
consistent 7521
coordinator 7522
--------------------------------------------------------------------------- 7523
maintains 7524
suffering 7525
reflection 7526
ancient 7527
shoulder 7528
desirable 7529
72 7530
rolling 7531
owners 7532
additional 7533
= 7534
restored 7535
medici 7536
residence 7537
fries 7538
cloth 7539
qaeda 7540
there 7541
dumb 7542
ops 7543
experienced 7544
confirms 7545
mess 7546
inquired 7547
attempted 7548
barclays 7549
advisers 7550
disaster 7551
affection 7552
believed 7553
specialists 7554
roms 7555
andaman 7556
undergraduate 7557
israelis 7558
people 7559
indoors 7560
googlenut 7561
prod 7562
t. 7563
;-) 7564
yelling 7565
live 7566
1.00 7567
scott 7568
also 7569
thermometer 7570
choose 7571
capture 7572
month 7573
saving 7574
terrorist 7575
paint 7576
blanco 7577
fires 7578
01/24/2001 7579
junkie 7580
arthritis 7581
kumaratunga 7582
august 7583
seek 7584
nationalist 7585
aint 7586
inevitably 7587
austin 7588
examination 7589
respectful 7590
rudeness 7591
evacuated 7592
h 7593
dope 7594
qaeda's 7595
waited 7596
reason 7597
tight 7598
lopez 7599
peter 7600
vital 7601
hates 7602
breakfasts 7603
flowers 7604
helpful 7605
tide 7606
winter 7607
principle 7608
800.713.8600 7609
write 7610
lay 7611
mkm 7612
sell 7613
spicy 7614
wildlife 7615
slack 7616
concern 7617
n't 7618
.doc 7619
digest 7620
starts 7621
son 7622
foot 7623
division 7624
shi'ite 7625
keys 7626
afghanistan’s 7627
acronym 7628
locations 7629
shipped 7630
there's 7631
should 7632
avoided 7633
presented 7634
perfection 7635
clay 7636
drink 7637
suv 7638
squeeze 7639
cafe 7640
spoke 7641
78 7642
contradict 7643
wash 7644
mexico 7645
mosul 7646
closing 7647
numero 7648
:( 7649
shut 7650
pick 7651
crash 7652
alma 7653
bust 7654
builds 7655
lasts 7656
15,000 7657
fund 7658
skimmer 7659
sullivan's 7660
friendly 7661
syria 7662
pieces 7663
arrival 7664
white 7665
buddy 7666
maureen 7667
nepalese 7668
!!!!!! 7669
errors 7670
rs 7671
struggle 7672
darla 7673
finger 7674
cry 7675
345-3436 7676
hilton 7677
bienvenue 7678
died 7679
korea 7680
dec. 7681
compounded 7682
political 7683
brakes 7684
distance 7685
listed 7686
executing 7687
workpapers 7688
superior 7689
walters 7690
don't 7691
mmbtu 7692
attended 7693
spacecraft 7694
unaware 7695
title 7696
grocery 7697
brass 7698
1,200 7699
permitted 7700
canadian 7701
pillow 7702
corner 7703
spawn 7704
we're 7705
tale 7706
spurs 7707
excepted 7708
associates 7709
clinton 7710
discussed 7711
assistance 7712
complaining 7713
highest 7714
expectation 7715
sketchy 7716
criticism 7717
stood 7718
90s 7719
simply 7720
mecca 7721
lb 7722
galleries 7723
communicated 7724
prompt 7725
bore 7726
transported 7727
below 7728
yorkshire 7729
edges 7730
gall 7731
hiller 7732
:-) 7733
bout's 7734
minimal 7735
childbirth 7736
hughes 7737
exists 7738
bathroom 7739
salon 7740
all 7741
past 7742
difficulty 7743
— 7744
pst 7745
student 7746
future 7747
dancers 7748
likes 7749
ballet 7750
violation 7751
{ 7752
jersey 7753
sentiment 7754
strathmann 7755
hubbard 7756
met 7757
liars 7758
occupancy 7759
kowalke 7760
maritime 7761
melt 7762
administration 7763
1999 7764
hand 7765
attachments 7766
loud 7767
possibly 7768
chiro 7769
rated 7770
fixed 7771
fred 7772
moussaoui's 7773
thread 7774
usb 7775
request 7776
link 7777
colleagues 7778
threatens 7779
extra 7780
stephanie 7781
sauce 7782
barbecue 7783
manager 7784
glad 7785
pg&e 7786
100,000 7787
add 7788
diego 7789
flank 7790
recorded 7791
finish 7792
mia's 7793
matters 7794
95 7795
viewpoints 7796
chairs 7797
susan's 7798
want 7799
fast 7800
thorough 7801
liq 7802
cancel 7803
liquefied 7804
shower 7805
gate 7806
accepted 7807
campenni 7808
game 7809
relatively 7810
mo 7811
affordable 7812
143 7813
kabul 7814
shall 7815
text 7816
combo 7817
rein 7818
computer 7819
democrat 7820
coup 7821
no. 7822
neighbourhood 7823
although 7824
chevron 7825
initiated 7826
sections 7827
generated 7828
increasing 7829
incredibly 7830
stones 7831
archive 7832
titles 7833
tots 7834
doc 7835
arnt 7836
smoke 7837
hate 7838
yourselves 7839
hamsters 7840
cafes 7841
convention 7842
formal 7843
poop 7844
1575 7845
10/23/2000 7846
democrats 7847
inappropriate 7848
” 7849
priced 7850
arranging 7851
> 7852
phoebe 7853
wholesale 7854
113 7855
ba'athists 7856
trouble 7857
liver 7858
protocol 7859
coffee 7860
he's 7861
out 7862
covers 7863
khan@transredes 7864
quote 7865
together 7866
beat 7867
daschle 7868
re 7869
caused 7870
hardness 7871
inventory 7872
sinking 7873
head 7874
lora 7875
corrupt 7876
ordering 7877
else's 7878
brunch 7879
specifically 7880
daily 7881
liquidweb.com 7882
customs 7883
documented 7884
german 7885
attain 7886
eu 7887
elite 7888
peaceful 7889
reintroduced 7890
negotiation 7891
suspect 7892
whereabouts 7893
victory 7894
tamils 7895
religions 7896
worn 7897
person 7898
hands 7899
equally 7900
rights 7901
affirm 7902
thyroid 7903
asked 7904
dominate 7905
microsoft 7906
luna 7907
fail 7908
marks 7909
basis 7910
grandmother 7911
birds 7912
destroyed 7913
another 7914
camp 7915
standards 7916
tommorow 7917
chiara 7918
integrity 7919
heather 7920
products 7921
accepting 7922
tank 7923
dudley 7924
crimes 7925
draw 7926
advised 7927
falls 7928
billions 7929
outdoors 7930
layer 7931
marrying 7932
lennon's 7933
stolen 7934
biochemical 7935
pakistani 7936
bench 7937
laurie.ellis@enron.com 7938
ginger 7939
aids 7940
support 7941
hummus 7942
dominance 7943
neighboring 7944
workers 7945
meira 7946
involvement 7947
ji 7948
ham 7949
anymore 7950
sheik 7951
reasoned 7952
contributions 7953
pilots 7954
defend 7955
sir 7956
formed 7957
important 7958
governor's 7959
bruce 7960
cent 7961
execute 7962
madrid 7963
cuts 7964
rare 7965
laboratory 7966
buying 7967
danny_jones%enron@eott.com 7968
settle 7969
- 7970
hosts 7971
arrayed 7972
proof 7973
gerald 7974
tco 7975
legislature 7976
grabbing 7977
doctors 7978
cheaper 7979
hoa 7980
iran 7981
philippines 7982
candidate 7983
amelia 7984
trains 7985
notion 7986
blame 7987
renaissance 7988
environmentally 7989
inciting 7990
removes 7991
built 7992
esp. 7993
sex 7994
sensor 7995
walloch 7996
muscle 7997
vic 7998
weeks 7999
sacred 8000
23rd 8001
professionalism 8002
flatbread 8003
cute 8004
salesperson 8005
sun 8006
set 8007
militants 8008
90 8009
sail 8010
internal 8011
ships 8012
sunnis 8013
model 8014
geographical 8015
said 8016
surprise 8017
ended 8018
plantation 8019
challenge 8020
flow 8021
uniforms 8022
mobile 8023
ones 8024
access 8025
papers 8026
weren't 8027
despite 8028
caribbean 8029
tandem 8030
dartmouth 8031
polluting 8032
operation 8033
chase 8034
growth 8035
clearer 8036
kim 8037
midmarket 8038
dads 8039
smoking 8040
harness 8041
spots 8042
'll 8043
strain 8044
missions 8045
mart 8046
proportion 8047
crew 8048
hospitals 8049
waters 8050
states 8051
ken 8052
wo 8053
---------------------------------------------------------------------- 8054
clergy 8055
rice@enron 8056
ago 8057
fabrications 8058
competition 8059
crra 8060
cleaning 8061
submerged 8062
sun's 8063
modified 8064
columbine 8065
appalled 8066
4:00 8067
& 8068
otherwise 8069
guests 8070
laughing 8071
hundreds 8072
ipn 8073
insurance 8074
currents 8075
pakistan’s 8076
dude 8077
conferenced 8078
pointing 8079
levels 8080
y 8081
270 8082
advanced 8083
transaction 8084
minister 8085
after 8086
hardest 8087
lives 8088
flexible 8089
bmw 8090
rider 8091
find 8092
proposal 8093
gotten 8094
takes 8095
thankful 8096
enjoys 8097
provider 8098
shout 8099
prime 8100
complained 8101
apparently 8102
respectfully 8103
orr 8104
prefer 8105
cattle 8106
centre 8107
minded 8108
leach 8109
hoecker 8110
ave 8111
union 8112
silkie 8113
funeral 8114
stacey 8115
raid 8116
stalls 8117
group 8118
ripple 8119
descriptions 8120
counters 8121
manned 8122
symptoms 8123
mt 8124
caem 8125
'' 8126
titman 8127
themselves 8128
transatlantic 8129
bigger 8130
conscious 8131
ld2d-#69396-1.doc 8132
pinto 8133
kidney 8134
arguments 8135
pretends 8136
stylist 8137
cay 8138
anglo 8139
waiting 8140
2 8141
failing 8142
flows 8143
ksm 8144
bbq 8145
cox's 8146
building 8147
managed 8148
old 8149
tet 8150
carl 8151
nymex 8152
king 8153
hospitable 8154
3rd 8155
quoted 8156
reward 8157
fool 8158
713 8159
man 8160
wheels 8161
alike 8162
then 8163
vehicle 8164
600 8165
professor 8166
knowledgeable 8167
stuff 8168
composition 8169
street 8170
nato 8171
faithfully 8172
sheriff's 8173
taste 8174
landing 8175
whom 8176
646-8420 8177
from 8178
extended 8179
executed 8180
pure 8181
brawler 8182
autumn 8183
infinity 8184
nixon 8185
06/01/2001 8186
counties 8187
afghanistan 8188
stock 8189
mark 8190
cp 8191
gene 8192
racking 8193
rushed 8194
port 8195
huge 8196
role 8197
interview 8198
seasoned 8199
each 8200
hisses 8201
hostess 8202
needed 8203
currently 8204
dozens 8205
beneficial 8206
emit 8207
connecticut 8208
assist 8209
kathleen 8210
pose 8211
spending 8212
leisure 8213
inc. 8214
unit 8215
stan 8216
notice 8217
overview 8218
savings 8219
crude 8220
speakers 8221
opened 8222
3:00 8223
kut 8224
completely 8225
rape 8226
creative 8227
count 8228
countryside 8229
drunk 8230
cheques 8231
pursuant 8232
injustice 8233
nashville 8234
journey 8235
nicks 8236
preferred 8237
flops 8238
acupuncturist 8239
u.s.a 8240
spiritual 8241
fortier 8242
strange 8243
event 8244
news 8245
recall 8246
jihad 8247
youngstown 8248
tarawa 8249
postings 8250
technological 8251
jintao 8252
veto 8253
reversal 8254
gender 8255
lol 8256
80435 8257
keep 8258
inserts 8259
donald 8260
boot 8261
m 8262
continues 8263
connection 8264
alterations 8265
bought 8266
12th 8267
bait 8268
360 8269
previous 8270
submarine 8271
ll 8272
pakistan 8273
index 8274
1504 8275
saintly 8276
dangers 8277
letting 8278
crappy 8279
don’t 8280
spices 8281
submitted 8282
sport 8283
76 8284
career 8285
even 8286
malaysian 8287
bonus 8288
delivered 8289
man's 8290
embassy 8291
enables 8292
motel 8293
analysis 8294
olympus 8295
playing 8296
incompetent 8297
island 8298
ppl 8299
targets 8300
virility 8301
month's 8302
valid 8303
415.782.7822 8304
across 8305
plaster 8306
order 8307
bear 8308
teaching 8309
stressed 8310
happen 8311
relatives 8312
ie 8313
nimr 8314
discovery 8315
possibilities 8316
" 8317
issue 8318
responded 8319
unusual 8320
enrononline 8321
compression 8322
row 8323
butt 8324
negotiations 8325
thrive 8326
react 8327
desire 8328
circumstances 8329
snake 8330
invented 8331
spice 8332
pounds 8333
one's 8334
bill 8335
stubley 8336
muslims 8337
grades 8338
yummy 8339
alert 8340
communicate 8341
protect 8342
b&b 8343
calculated 8344
registered 8345
13011 8346
votes 8347
hoping 8348
generations 8349
rhythmically 8350
lemelpe@nu.com 8351
slice 8352
wagon 8353
flyers 8354
shelves 8355
significant 8356
basic 8357
priests 8358
dear 8359
05/01/2001 8360
imprisoned 8361
relationship 8362
anonymous 8363
toy 8364
buck 8365
guerilla 8366
brothers 8367
chechnya 8368
hurt 8369
owned 8370
circle 8371
arrogance 8372
guitar 8373
interested 8374
mhc 8375
retail 8376
713-646-3393 8377
herd 8378
documents 8379
national 8380
suppose 8381
actual 8382
entities 8383
review 8384
processor 8385
monumental 8386
providers 8387
observation 8388
allocation 8389
ignoring 8390
mohammed's 8391
avoid 8392
jonathan 8393
heaven 8394
criminal 8395
empathy 8396
weil 8397
homosexuality 8398
removing 8399
sheikhs 8400
relaxing 8401
propose 8402
· 8403
6:00 8404
scenario 8405
erratic 8406
11/29/2000 8407
legally 8408
spin 8409
examining 8410
goal 8411
stepping 8412
nine 8413
arrangement 8414
rental 8415
lewiston 8416
serious 8417
bloody 8418
okay 8419
pools 8420
apartment 8421
identity 8422
prince 8423
admitted 8424
lawless 8425
reserved 8426
policy 8427
behaviour 8428
dpr 8429
zero 8430
any 8431
think 8432
harmless 8433
trainers 8434
invasive 8435
niagara 8436
fuss 8437
gelceuticals 8438
poland 8439
true 8440
750 8441
take 8442
memory 8443
considerable 8444
flipping 8445
promoting 8446
attacked 8447
ownership 8448
transferred 8449
blue 8450
titanic 8451
water 8452
gimp 8453
wielding 8454
endless 8455
jason 8456
cats 8457
karla 8458
dragged 8459
back 8460
servant 8461
himself 8462
absorbing 8463
relations 8464
craft 8465
able 8466
recognize 8467
opinions 8468
70 8469
others 8470
cap 8471
dorsey 8472
airline 8473
raging 8474
flowed 8475
neighbouring 8476
immensely 8477
imagine 8478
officers 8479
effort 8480
interference 8481
hens 8482
hibernation 8483
mutual 8484
rer 8485
divorce 8486
torch 8487
reviewed 8488
partition 8489
piece 8490
datamanager 8491
culture 8492
mary 8493
minkin 8494
francisco 8495
recruitment 8496
kick 8497
temples 8498
dad's 8499
scare 8500
alleged 8501
programming 8502
wake 8503
if 8504
marriages 8505
enrolled 8506
newborn 8507
checkout 8508
lo 8509
neil 8510
cheryl 8511
negative 8512
invoiced 8513
pervez 8514
lanka's 8515
france 8516
indonesia 8517
essex 8518
determined 8519
tied 8520
1968 8521
grab 8522
went 8523
02/27/2001 8524
planning 8525
louis 8526
pester 8527
none 8528
vanguards 8529
offspring 8530
headquarters 8531
hoped 8532
bush’s 8533
inevitable 8534
hedge 8535
viability 8536
salary 8537
canada 8538
bomber 8539
final 8540
they'll 8541
dance 8542
leon 8543
indoor 8544
christopher 8545
ana 8546
code 8547
pipeline 8548
6,000 8549
material 8550
incurred 8551
managing 8552
married 8553
failed 8554
substances 8555
era 8556
turns 8557
itinerary 8558
previously 8559
preventive 8560
defence 8561
honestly 8562
videos 8563
seems 8564
disability 8565
unlike 8566
rush 8567
bay 8568
statements 8569
tools 8570
guys 8571
substantial 8572
exception 8573
patients 8574
robert 8575
22nd 8576
stability 8577
atlanta 8578
ladies 8579
payable 8580
corn 8581
202.456.1111 8582
senators 8583
spoken 8584
louisiana 8585
coding 8586
lighter 8587
personalized 8588
cruises 8589
without 8590
scroll 8591
b. 8592
analyses 8593
ireland 8594
nancy 8595
jan 8596
absurd 8597
patience 8598
du 8599
killifish 8600
budgets 8601
thursday 8602
believe 8603
drills 8604
. 8605
supporter 8606
chavez 8607
david 8608
superfund 8609
upcoming 8610
dinners 8611
welcome 8612
route 8613
1.5 8614
feeding 8615
islamists 8616
belarus 8617
saw 8618
invasion 8619
dslr 8620
beers 8621
making 8622
furniture 8623
earthquake 8624
been 8625
proper 8626
ailment 8627
driver 8628
choosing 8629
threw 8630
innovative 8631
information 8632
fallujan 8633
intend 8634
generous 8635
eco 8636
simien 8637
ena's 8638
moro 8639
branches 8640
drag 8641
shown 8642
operated 8643
101 8644
valuing 8645
soothing 8646
observe 8647
known 8648
prevent 8649
briggs 8650
services.doc 8651
demands 8652
legit 8653
bravery 8654
surgery 8655
guns 8656
afterward 8657
lewis 8658
thin 8659
overflow 8660
disclose 8661
combat 8662
budge 8663
ismat 8664
numbers 8665
gapinski 8666
findings 8667
irony 8668
located 8669
developing 8670
appetite 8671
flopping 8672
gift 8673
volumes 8674
pros 8675
him 8676
speak 8677
moldovan 8678
tract 8679
crisis 8680
affairs 8681
2.975 8682
laura 8683
statement 8684
myself 8685
carbon 8686
major 8687
jeremy 8688
unfortunate 8689
icdc 8690
pin 8691
remembers 8692
preceded 8693
kyle 8694
ellis 8695
trailers 8696
ted 8697
its 8698
plot 8699
warn 8700
eelam 8701
proceeding 8702
chicago 8703
physical 8704
heels 8705
.... 8706
valued 8707
professionals 8708
wounds 8709
afraid 8710
cockatiel's 8711
shoe 8712
1980s 8713
quick 8714
agree 8715
incomplete 8716
continental 8717
cures 8718
becky 8719
aspen 8720
agenda 8721
injuries 8722
appropriators 8723
petroleum 8724
earth 8725
photography 8726
homosexual 8727
rebuilding 8728
yea 8729
mental 8730
analyst 8731
kill 8732
sides 8733
handed 8734
guardsmen 8735
curve 8736
claim 8737
garcia 8738
which 8739
analysis_0712 8740
raphael 8741
ceiling 8742
.......... 8743
polluter 8744
ss 8745
millet 8746
public 8747
assumed 8748
moving 8749
info 8750
hit 8751
callum 8752
flyer 8753
glasses 8754
wars 8755
baathist 8756
repercussions 8757
powerful 8758
treaty 8759
neatly 8760
settlements 8761
creates 8762
economically 8763
jets 8764
slightly 8765
barcelona 8766
flew 8767
river 8768
editor 8769
underneath 8770
ants 8771
liquidweb 8772
cage 8773
comforting 8774
boiled 8775
flooring 8776
minerals 8777
baba 8778
strongly 8779
definitely 8780
laurie 8781
comb 8782
) 8783
regime 8784
plays 8785
perfectly 8786
contact 8787
fantastic 8788
allies 8789
advisors 8790
snow 8791
highlighted 8792
staple 8793
meiring 8794
=) 8795
standing 8796
born 8797
nice 8798
sub 8799
fraiser 8800
delhi 8801
j. 8802
incentive 8803
ballroom 8804
shape 8805
decent 8806
whats 8807
links 8808
the 8809
jones 8810
breaking 8811
disregard 8812
oglethorpe 8813
greatest 8814
dongle 8815
1307 8816
traditional 8817
unfriendly 8818
malaysia 8819
cpuc 8820
bravely 8821
covered 8822
wanted 8823
rolls 8824
gown 8825
fx 8826
guards 8827
dow 8828
pics 8829
burger 8830
hodge 8831
annoyed 8832
field 8833
organised 8834
concentration 8835
mcdonald 8836
713-654-0365 8837
grew 8838
veggies 8839
ensured 8840
tells 8841
hull 8842
haven't 8843
caps 8844
yoko 8845
05/03/2001 8846
drinks 8847
league 8848
sending 8849
jemison 8850
in 8851
briefing 8852
gentlemen 8853
mtm 8854
careful 8855
visual 8856
net 8857
lobster 8858
vacation 8859
protests 8860
error 8861
spaces 8862
liberties 8863
hour 8864
taub 8865
may 8866
mac 8867
cure 8868
told 8869
attempting 8870
mexican 8871
dried 8872
notch 8873
belonged 8874
differential 8875
evacuate 8876
bloom 8877
land 8878
twenty 8879
visit 8880
divisions 8881
meetings 8882
scaring 8883
vary 8884
para13 8885
shaped 8886
arabian 8887
unemployed 8888
nalapat 8889
franklin 8890
expiration 8891
anytime 8892
referring 8893
happier 8894
leo 8895
unpopular 8896
979 8897
profits 8898
chain 8899
seats 8900
switch 8901
dhin 8902
toenail 8903
psycho-spiritual 8904
deleted 8905
infinite 8906
untalented 8907
functional 8908
blair 8909
713-853-3098 8910
rom 8911
pending 8912
stupid 8913
loss 8914
26 8915
abuse 8916
* 8917
mom 8918
tail 8919
radical 8920
topic 8921
questar's 8922
ramifications 8923
brad 8924
judgment 8925
obedience 8926
comments 8927
11:35 8928
beliefs 8929
setoff 8930
manners 8931
bs 8932
bettas 8933
hiring 8934
bu 8935
befuddled 8936
powell's 8937
feature 8938
broad 8939
michael 8940
8:30 8941
e-mail 8942
black 8943
offices 8944
blanket 8945
jurisdictions 8946
brief 8947
williams 8948
invested 8949
square 8950
assignment 8951
freely 8952
flat 8953
extinctions 8954
trainer 8955
san 8956
bankruptcies 8957
excuse 8958
decades 8959
opening 8960
greet 8961
**** 8962
happily 8963
exceptionally 8964
perspective 8965
tactics 8966
rich 8967
herpes 8968
done 8969
friday 8970
your 8971
uv 8972
same 8973
embarrassment 8974
wishes 8975
ordered 8976
dime 8977
hoof 8978
criticized 8979
traditions 8980
investigative 8981
importance 8982
province 8983
leg 8984
contra 8985
11/7/08 8986
valuation 8987
growing 8988
sour 8989
sympathizers 8990
long 8991
kitten 8992
demonstrate 8993
solution 8994
natural 8995
worldwide 8996
phet 8997
painewebber 8998
confiscated 8999
gain 9000
lose 9001
holy 9002
creditors 9003
suitable 9004
veterinary 9005
hotel 9006
things 9007
no 9008
dish 9009
clean 9010
actively 9011
sealed 9012
+1 9013
fears 9014
fits 9015
keeps 9016
test 9017
commit 9018
prizes 9019
na 9020
akin 9021
europe 9022
painting 9023
conditions 9024
circles 9025
anne 9026
1970s 9027
residents 9028
dale 9029
lady 9030
overdue 9031
enron.xls 9032
pigeon 9033
brazilian 9034
guthrie 9035
pub 9036
groom 9037
studies 9038
lap 9039
speaking 9040
palestine 9041
convincing 9042
larger 9043
disappointment 9044
hamster 9045
obsf 9046
roaches 9047
moslems 9048
smuggled 9049
maybe 9050
uncut 9051
joint 9052
confined 9053
[PAD_X] 9054
